################################################################################
# PREAMBLE
################################################################################
outdata_prefix "./outdata/ebnd"                                                 # path prefix for output data files
ndtset 2                                                                        # number of datasets (one for SCF procedure to get GS electron density, one for band structure calculation)

################################################################################
# UNIT CELL
################################################################################
acell 7.626 7.626 7.626                                                         # [Bohr] length scales by which dimensionless primitive translations 'rprim' are multiplied (determined with cell optimization)
rprim 0.0 0.5 0.5                                                               # dimensionless primitive translations in real space
      0.5 0.0 0.5
      0.5 0.5 0.0

################################################################################
# ATOM TYPES
################################################################################
ntypat 1                                                                        # number of atom types
znucl 13                                                                        # atomic number of the atom types (space-separated)
pp_dirpath "../../../pseudos/pseudo-dojo_nc_sr_pbe_standard"                    # path to directory containing pseudopotentials (must be consistent with 'znucl' order)
pseudos "Al.psp8"                                                               # pseudopotential file names (within quotation marks, comma-separated)

################################################################################
# ATOMS
################################################################################
natom 1                                                                         # Al has FCC structure, with one atom per unit cell
typat 1                                                                         # atom types (must be consistent with 'znucl' and 'pseudos' order)
xred 0.0 0.0 0.0                                                                # atom fractional coordinates within unit cell

################################################################################
# PLANE-WAVE BASIS SET
################################################################################
ecut 14.0                                                                       # [Ha] cut-off energy; converge study in previous "experiment" (see http://www.pseudo-dojo.org/)

################################################################################
# k-POINT GRID (see https://journals.aps.org/prb/abstract/10.1103/PhysRevB.13.5188) for SCF procedure (dataset 1)
################################################################################
kptopt1 1                                                                       # method to set-up k-points; 1: symmetry accounted for, so that only k-points within irreducible BZ generated, with appropriate symmetry-defined weights (degeneracy); prevents redundancy
ngkpt1 6 6 6                                                                    # number of grid points
nshiftk1 4                                                                      # number of shifted grids to be used concurrently with the one defined above
shiftk1 0.5 0.5 0.5                                                             # k-grid shift vectors; this combination is very efficient for FCC lattice, while other choices might be more suitable for other lattices (see https://docs.abinit.org/variables/basic/#shiftk)
        0.5 0.0 0.0
        0.0 0.5 0.0
        0.0 0.0 0.5

################################################################################
# OCCUPATION
################################################################################
occopt 4                                                                        # controls how occupation of electronic states is handled (see https://docs.abinit.org/variables/basic/#occopt)
                                                                                # when occopt = 4, the "cold smearing" of Marzari is used
                                                                                # smearing improves convergence w.r.t. to BZ sampling in metals, where state occupation drops suddenly to zero as Fermi level crossed
                                                                                # otherwise, a very fine mesh would be needed for accurate integration around the discontinuity
tsmear 0.04                                                                     # [Ha] "temperature" of smearing
                                                                                # convergence should be checked also w.r.t. this parameter
                                                                                # see http://theossrv1.epfl.ch/Main/ElectronicTemperature

################################################################################
# SCF PROCEDURE
################################################################################
nstep1 20                                                                       # max. number of SCF cycles
toldfe1 1.0d-6                                                                  # convergence criterion: absolute energy difference between two consecutive steps
diemac1 1e6                                                                     # (optional) pre-conditioning of macroscopic dielectric constant; very large for metals; might significantly speed up computation (see https://docs.abinit.org/variables/gstate/#diemac)
prtden1  1                                                                      # save density from SCF procedure (dataset1), so that it can be used in the non-self-consistent calculation of band structure (dataset 2)

################################################################################
# BAND STRUCTURE
################################################################################
iscf2 -2                                                                        # self-consistency of the calculation; 0: SCF cycle, -2: non-SCF calculation (we are reading the electron density from the previous SCF cycle)
getden2 -1                                                                      # get density from previous step
kptopt2 -9                                                                      # when negative, the k-points are set up by specify bounds and number of sub-divisions of segments in BZ; the absolute value must be equal to the number of segments used
nband2 6                                                                        # number of bands (if unsure, look at 'nband' in output file of SCF cycle and add some more)
ndivsm2 10                                                                      # number of sub-divisions of each band structure segment
kptbounds2  0    0    0                                                         # bounds of band structure segments. Gamma point
            1/2  0    1/2                                                       # X point
            1/2  1/4  3/4                                                       # W point
            3/8  3/8  3/4                                                       # K point
            0    0    0                                                         # Gamma point
            1/2  1/2  1/2                                                       # L point
            5/8  1/4  5/8                                                       # U point
            1/2  1/4  3/4                                                       # W point
            1/2  1/2  1/2                                                       # L point
            3/8  3/8  3/4                                                       # K point
tolwfr2  1.0d-12                                                                # tolerance on wavefunction squared residual
enunit2  1                                                                      # output energies in eV instead of Ha
