################################################################################
# PREAMBLE
################################################################################
outdata_prefix "./outdata/1_response/response"                                  # path prefix for output data files
ndtset 31                                                                       # number of datasets:
                                                                                # 1: initial GS SCF calculation, 2-31: response to phonons
                                                                                # the number of irreducible q-points has been checked
                                                                                # with previous dummy run

################################################################################
# PHONON-RELATED DEFAULT SETTINGS
################################################################################
qptopt 1                                                                        # q-point grid generation
ngqpt 8 8 4                                                                     # same meanings as k-point related vars
nshiftq 1
shiftq 0 0 0
nqpt 1                                                                          # read q-point (ABINIT considers one q point per dataset)
rfphon 1                                                                        # calculate response function to q-phonon
getwfk 1                                                                        # use wavefunction from dataset 1 (GS calculation)
tolvrs 1.0d-8                                                                   # convergence based on residual of potential

kptopt 3                                                                        # do not account for symmetry when generating k-vectors
                                                                                # (needed for phonon calculations; overridden in dataset 1)

# specify which q-point from the grid to use for each dataset,
# by index in the list of q-points
iqpt: 0                                                                         # start q-point: iqpt=0 => q = 0 0 0
iqpt+ 1                                                                         # increment iqpt by 1 at each dataset
                                                                                # iqpt=1 => q = 0 0 0
                                                                                # at last dataset (9), iqpt=8 (max. index)

################################################################################
# DATASET 1: GROUND-STATE CALCULATION
################################################################################
getwfk1 0                                                                       # override taking wavefunction from previous calculation
nqpt1 0                                                                         # do not apply phonon perturbation
rfphon1 0                                                                       # do not apply phonon perturbation
tolvrs1 1.0d-18                                                                 # SCF convergence criterion: residual of the potential
                                                                                # (see https://docs.abinit.org/variables/basic/#tolvrs)
kptopt1 1                                                                       # override set-up of k-points to take symmetry into account
                                                                                # OK for GS, must be 3 for response calculation

################################################################################
# UNIT CELL
################################################################################
acell  4.7452903429E+00  4.7452903429E+00  1.6158145952E+01                     # [Bohr] length scales by which dimensionless primitive translations 'rprim' are multiplied
rprim  1.0000000000E+00  0.0000000000E+00  0.0000000000E+00                     # dimensionless primitive translations in real space
      -5.0000000000E-01  8.6602540378E-01  0.0000000000E+00
       0.0000000000E+00  0.0000000000E+00  1.0000000000E+00

################################################################################
# ATOM TYPES
################################################################################
ntypat 2                                                                        # number of atom types
znucl 5 7                                                                       # atomic number of the atom types (space-separated)
pp_dirpath "../../../pseudos/pseudo-dojo_nc_sr_pbe_standard"                    # path to directory containing pseudopotentials (must be consistent with 'znucl' order)
pseudos "B.psp8, N.psp8"                                                        # pseudopotential file names (within quotation marks, comma-separated)

################################################################################
# ATOMS
################################################################################
natom 4                                                                         # number of atoms in the unit cell
typat 1 1 2 2                                                                   # atom types (must be consistent with 'znucl' and 'pseudos' order)
xred  2.3314068038E-28  2.3117470367E-28  5.0000000000E-01                      # atom fractional coordinates within unit cell
      3.3333333333E-01  6.6666666667E-01 -1.8841942557E-31
      2.8470500500E-27  4.8209414655E-27 -1.3288451039E-31
      3.3333333333E-01  6.6666666667E-01  5.0000000000E-01

################################################################################
# PLANE-WAVE BASIS SET
################################################################################
ecut 42.0                                                                       # [Ha] cut-off energy; converge study in previous "experiment" (see http://www.pseudo-dojo.org/)

################################################################################
# NUMBER OF BANDS
################################################################################
nband 9

################################################################################
# k-POINT GRID (see https://journals.aps.org/prb/abstract/10.1103/PhysRevB.13.5188)
################################################################################
ngkpt 8 8 4                                                                     # number of grid points
nshiftk 1                                                                       # number of shifted grids to be used in addition to the one defined above
shiftk 0.0 0.0 0.0                                                              # k-grid shift vectors;

################################################################################
# SCF PROCEDURE
################################################################################
nstep 50                                                                        # max. number of SCF cycles
diemac 12.0                                                                     # (optional) pre-conditioning of macroscopic dielectric constant (see https://docs.abinit.org/variables/gstate/#diemac); might significantly speed-up computation
