################################################################################
# PREAMBLE
################################################################################
outdata_prefix "./outdata/Nb_rlx"    # Prefix for output files

################################################################################
# UNIT CELL RELAXATION PROCEDURE
################################################################################
optcell 2          # Optimize cell geometry (volume and shape).
ionmov  2          # BFGS minimization algorithm for ions.
ntime   20         # Max number of relaxation steps.
dilatmx 1.01
ecutsm  0.5        # Smearing for plane-wave kinetic energy to smooth forces.

################################################################################
# UNIT CELL (Niobium - BCC)
################################################################################
# Experimental Lattice Constant a ~ 3.30 Angstroms approx 6.24 Bohr.
acell 6.24 6.24 6.24 

# Dimensionless primitive vectors for BCC structure.
rprim -0.5  0.5  0.5
       0.5 -0.5  0.5
       0.5  0.5 -0.5

################################################################################
# ATOM TYPES
################################################################################
ntypat 1           # Number of atom types.
znucl 41           # Atomic number for Niobium (Nb). 

# Ensure you have the correct Nb pseudopotential in this path.
pp_dirpath "../"
pseudos "Nb.psp8" 

################################################################################
# ATOMS
################################################################################
natom 1            # 1 atom per primitive cell for BCC.
typat 1            # Type of atom 1.
xred  0.0 0.0 0.0  # Fractional coordinates (origin).

################################################################################
# PLANE-WAVE BASIS SET
################################################################################
ecut 44.0

################################################################################
# k-POINT GRID
################################################################################
kptopt 1
ngkpt  14 14 14

nshiftk 1
shiftk  0.5 0.5 0.5

################################################################################
# OCCUPATION (Smearing)
################################################################################
occopt 4           # Cold smearing (Marzari).
tsmear 0.001       # Smearing temperature [Ha]. 

################################################################################
# SCF PROCEDURE
################################################################################
nstep 75           # Max SCF cycles (increased for d-electron convergence).
toldfe 1.0d-7      # Energy tolerance (tighter for relaxation forces).
