################################################################################
# PREAMBLE
################################################################################
outdata_prefix "./outdata/ebnd"                                                 # path prefix for output data files
ndtset 2                                                                        # number of datasets (one for SCF procedure to get GS electron density, one for band structure calculation)

################################################################################
# UNIT CELL
################################################################################
acell  6.2360  6.2360  6.2360
rprim
 -0.5  0.5  0.5
  0.5 -0.5  0.5
  0.5  0.5 -0.5

# ---------------------
# Species & atoms (single-atom primitive cell)
# --------------------
ntypat 1
znucl  41                         # Nb
natom  1
typat  1
xred
  0.0  0.0  0.0                   # single atom at the lattice point

# --------------------
# Pseudopotential
# --------------------
pp_dirpath "../"
pseudos    "Nb.psp8"

# --------------------
# Global defaults (overridden by per-dataset lines below)
# --------------------
# Plane waves (used by k-mesh sweep datasets 10..14)
ecut    33

# K-point sampling (used by ecut sweep datasets 1..9)
kptopt  1
ngkpt   10 10 10
nshiftk 1
shiftk  0.5 0.5 0.5

# SCF controls
nstep   80
toldfe  1.0d-6
diemac  1e6
################################################################################
# OCCUPATION
################################################################################
occopt 4                                                                        # controls how occupation of electronic states is handled (see https://docs.abinit.org/variables/basic/#occopt)
                                                                                # when occopt = 4, the "cold smearing" of Marzari is used
                                                                                # smearing improves convergence w.r.t. to BZ sampling in metals, where state occupation drops suddenly to zero as Fermi level crossed
                                                                                # otherwise, a very fine mesh would be needed for accurate integration around the discontinuity
tsmear 0.001                                                                     # [Ha] "temperature" of smearing
                                                                                # convergence should be checked also w.r.t. this parameter
                                                                                # see http://theossrv1.epfl.ch/Main/ElectronicTemperature

################################################################################
# BAND STRUCTURE
################################################################################
iscf2 -2
getden2 -1                                                                      # get density from previous step
kptopt2 -7
nband2 32
ndivsm2 80                                                                      # number of sub-divisions of each band structure segment
kptbounds2  
  0      0      0          # Γ
 -1/2    1/2    1/2        # H
  1/4   -1/4    1/4        # N
  0      0      0          # Γ
  1/4    1/4    1/4        # P
  1/4   -1/4    1/4        # N
  1/4    1/4    1/4        # P
 -1/2    1/2    1/2        # H
tolwfr2  1.0d-12                                                                # tolerance on wavefunction squared residual
enunit2  1                                                                      # output energies in eV instead of Ha
