- OMP_NUM_THREADS was not defined. It has been set to 1.
- OMP_NUM_THREADS was not defined. It has been set to 1.
- OMP_NUM_THREADS was not defined. It has been set to 1.
- OMP_NUM_THREADS was not defined. It has been set to 1.
  ABINIT 10.2.7-d
  
-instrng: 79 lines of input have been read from file bands.abi


--- !COMMENT
src_file: m_dtfil.F90
src_line: 1503
message: |
    Output file: bands.abo already exists.
...


--- !COMMENT
src_file: m_dtfil.F90
src_line: 1527
message: |
    Renaming old: bands.abo to: bands.abo0005
...


.Version 10.2.7-d of ABINIT, released Dec 2025.
.(MPI version, prepared for a arm_darwin24.3.0_gnu14.2 computer) 

.Copyright (C) 1998-2025 ABINIT group . 
 ABINIT comes with ABSOLUTELY NO WARRANTY.
 It is free software, and you are welcome to redistribute it
 under certain conditions (GNU General Public License,
 see ~abinit/COPYING or http://www.gnu.org/copyleft/gpl.txt).

 ABINIT is a project of the Universite Catholique de Louvain,
 Corning Inc. and other collaborators, see ~abinit/doc/developers/contributors.txt .
 Please read https://docs.abinit.org/theory/acknowledgments for suggested
 acknowledgments of the ABINIT effort.
 For more information, see https://www.abinit.org .

.Starting date : Tue 19 Aug 2025.
- ( at 17h44 )
  

 ++++++++++++++++++++++++++++++++++++++++++++++++++++++++++++++++++++++++++++++

 === Build Information === 
  Version       : 10.2.7-d
  Build target  : arm_darwin24.3.0_gnu14.2
  Build date    : 20250318

 === Compiler Suite === 
  C compiler       : llvm16.0
  C++ compiler     : llvm16.0
  Fortran compiler : gnu14.2
  CFLAGS           : -g -O2 -mtune=native -mcpu=native
  CXXFLAGS         : -g -O2 -mtune=native -mcpu=native
  FCFLAGS          : -g -ffree-line-length-none -fallow-argument-mismatch -fopenmp  -fal ...
  FC_LDFLAGS       : 

 === Optimizations === 
  Debug level        : basic
  Optimization level : standard
  Architecture       : _

 === Multicore === 
  Parallel build : yes
  Parallel I/O   : 
  openMP support : yes
  GPU support    : 

 === Connectors / Fallbacks === 
  LINALG flavor  : netlib
  FFT flavor     : fftw3
  HDF5           : yes
  NetCDF         : yes
  NetCDF Fortran : yes
  LibXC          : yes
  Wannier90      : yes

 === Experimental features === 
  Exports             : @enable_exports@
  GW double-precision : 

 ++++++++++++++++++++++++++++++++++++++++++++++++++++++++++++++++++++++++++++++


 ++++++++++++++++++++++++++++++++++++++++++++++++++++++++++++++++++++++++++++++
 Default optimizations:
   -O2 -march=native


 Optimizations for 43_ptgroups:
   -O0


 ++++++++++++++++++++++++++++++++++++++++++++++++++++++++++++++++++++++++++++++


 ++++++++++++++++++++++++++++++++++++++++++++++++++++++++++++++++++++++++++++++
 CPP options activated during the build:

                   CC_LLVM                  CXX_LLVM                    FC_GNU
 
 HAVE_FC_ALLOCATABLE_DT...             HAVE_FC_ASYNC         HAVE_FC_BACKTRACE
 
  HAVE_FC_COMMAND_ARGUMENT      HAVE_FC_COMMAND_LINE        HAVE_FC_CONTIGUOUS
 
           HAVE_FC_CPUTIME              HAVE_FC_EXIT             HAVE_FC_FLUSH
 
             HAVE_FC_GAMMA            HAVE_FC_GETENV   HAVE_FC_IEEE_ARITHMETIC
 
   HAVE_FC_IEEE_EXCEPTIONS          HAVE_FC_INT_QUAD             HAVE_FC_IOMSG
 
     HAVE_FC_ISO_C_BINDING  HAVE_FC_ISO_FORTRAN_2008        HAVE_FC_LONG_LINES
 
        HAVE_FC_MOVE_ALLOC  HAVE_FC_ON_THE_FLY_SHAPE           HAVE_FC_PRIVATE
 
         HAVE_FC_PROTECTED           HAVE_FC_SHIFTLR         HAVE_FC_STREAM_IO
 
            HAVE_FC_SYSTEM                HAVE_FFTW3            HAVE_FFTW3_MPI
 
        HAVE_FFTW3_THREADS          HAVE_FORTRAN2003                 HAVE_HDF5
 
        HAVE_LIBPAW_ABINIT      HAVE_LIBTETRA_ABINIT                HAVE_LIBXC
 
         HAVE_LINALG_AXPBY         HAVE_LINALG_GEMMT HAVE_LINALG_OPENBLAS_T...
 
     HAVE_LINALG_SCALAPACK     HAVE_LINALG_ZDOTC_B*G     HAVE_LINALG_ZDOTU_B*G
 
                  HAVE_MPI                 HAVE_MPI2         HAVE_MPI2_INPLACE
 
       HAVE_MPI_IALLGATHER       HAVE_MPI_IALLREDUCE        HAVE_MPI_IALLTOALL
 
       HAVE_MPI_IALLTOALLV           HAVE_MPI_IBCAST         HAVE_MPI_IGATHERV
 
        HAVE_MPI_INTEGER16               HAVE_MPI_IO HAVE_MPI_TYPE_CREATE_S...
 
               HAVE_NETCDF       HAVE_NETCDF_FORTRAN         HAVE_OMP_COLLAPSE
 
               HAVE_OPENMP         HAVE_TIMER_ABINIT            HAVE_WANNIER90
 
                  HAVE_XML                                                      
 ++++++++++++++++++++++++++++++++++++++++++++++++++++++++++++++++++++++++++++++

- input  file    -> bands.abi
- output file    -> bands.abo
- root for input  files -> bandsi
- root for output files -> ./outdata/ebnd

 abinit : after writing the name of files
-instrng: 79 lines of input have been read from file bands.abi

 For atom type 1, psp file is ../Nb.psp8
  read the values zionpsp= 13.0 , pspcod=   8 , lmax=   2

 inpspheads: deduce mpsang = 3, n1xccc = 2501.

======================================================= 
 invars1m : enter jdtset= 1
  xred   is defined in input file
 ingeo: takes atomic coordinates from input array xred

--- !COMMENT
src_file: m_symfind.F90
src_line: 830
message: |
    The tolerance on symmetries =   1.000E-05 is bigger than 1.0e-8.
    In order to avoid spurious effects, the atomic coordinates have been
    symmetrized before storing them in the dataset internal variable.
    So, do not be surprised by the fact that your input variables (xcart, xred, ...)
    do not correspond exactly to the ones echoed by ABINIT, the latter being used to do the calculations.
    This is not a problem per se.
    Still, in order to avoid this symmetrization (e.g. for specific debugging/development), decrease tolsym to 1.0e-8 or lower,
    or (much preferred) use input primitive vectors that are accurate to better than 1.0e-8.
    This message will only be printed once, even if there are other datasets where tolsym is bigger than 1.0e-8.
...


 symlatt: the Bravais lattice is cI (body-centered cubic)
 symspgr: spgroup= 229  Im -3 m   (=Oh^9)
 symspgr: optical characteristics = isotropic

======================================================= 
 invars1m : enter jdtset= 2
  xred   is defined in input file
 ingeo: takes atomic coordinates from input array xred

 symlatt: the Bravais lattice is cI (body-centered cubic)
 symspgr: spgroup= 229  Im -3 m   (=Oh^9)
 symspgr: optical characteristics = isotropic
 Real(R)+Recip(G) space primitive vectors, cartesian coordinates (Bohr,Bohr^-1):
 R(1)= -3.1180000  3.1180000  3.1180000  G(1)=  0.0000000  0.1603592  0.1603592
 R(2)=  3.1180000 -3.1180000  3.1180000  G(2)=  0.1603592  0.0000000  0.1603592
 R(3)=  3.1180000  3.1180000 -3.1180000  G(3)=  0.1603592  0.1603592  0.0000000
 Unit cell volume ucvol=  1.2125184E+02 bohr^3
 Unit cell volume ucvol=  1.2125184E+02 bohr^3
 Angles (23,13,12)=  1.09471221E+02  1.09471221E+02  1.09471221E+02 degrees
 Angles (23,13,12)=  1.09471221E+02  1.09471221E+02  1.09471221E+02 degrees
  0.16035920461834510       0.17928704117220892        8.0179602309172551E-002  0.13887514493015374       0.11339108101131296       0.11339108101131296       0.13887514493015374     

 mknormpath : total number of points on the path: 462

 Number of divisions for each segment of the normalized path:
 0.00000 0.00000 0.00000 ==> -0.50000 0.50000 0.50000 ( ndiv:    80 )
-0.50000 0.50000 0.50000 ==>  0.25000-0.25000 0.25000 ( ndiv:    89 )
 0.25000-0.25000 0.25000 ==>  0.00000 0.00000 0.00000 ( ndiv:    40 )
 0.00000 0.00000 0.00000 ==>  0.25000 0.25000 0.25000 ( ndiv:    69 )
 0.25000 0.25000 0.25000 ==>  0.25000-0.25000 0.25000 ( ndiv:    57 )
 0.25000-0.25000 0.25000 ==>  0.25000 0.25000 0.25000 ( ndiv:    57 )
 0.25000 0.25000 0.25000 ==> -0.50000 0.50000 0.50000 ( ndiv:    69 )


 invars2: take the default value of fband=  5.00000000E-01

--- !WARNING
src_file: m_invars2.F90
src_line: 2060
message: |
    nbdbuf is not specified in input, using `nbdbuf = 2*nspinor` that may be too small!
    As a consequence, the NSCF cycle may have problems to converge the last bands within nstep iterations.
    To avoid this problem specify nbdbuf in the input file and adjust nband accordingly.
...

 Real(R)+Recip(G) space primitive vectors, cartesian coordinates (Bohr,Bohr^-1):
 R(1)= -3.1180000  3.1180000  3.1180000  G(1)=  0.0000000  0.1603592  0.1603592
 R(2)=  3.1180000 -3.1180000  3.1180000  G(2)=  0.1603592  0.0000000  0.1603592
 R(3)=  3.1180000  3.1180000 -3.1180000  G(3)=  0.1603592  0.1603592  0.0000000
 Unit cell volume ucvol=  1.2125184E+02 bohr^3
 Unit cell volume ucvol=  1.2125184E+02 bohr^3
 Angles (23,13,12)=  1.09471221E+02  1.09471221E+02  1.09471221E+02 degrees
 Angles (23,13,12)=  1.09471221E+02  1.09471221E+02  1.09471221E+02 degrees
  0.16035920461834510       0.17928704117220892        8.0179602309172551E-002  0.13887514493015374       0.11339108101131296       0.11339108101131296       0.13887514493015374     

 mknormpath : total number of points on the path: 462

 Number of divisions for each segment of the normalized path:
 0.00000 0.00000 0.00000 ==> -0.50000 0.50000 0.50000 ( ndiv:    80 )
-0.50000 0.50000 0.50000 ==>  0.25000-0.25000 0.25000 ( ndiv:    89 )
 0.25000-0.25000 0.25000 ==>  0.00000 0.00000 0.00000 ( ndiv:    40 )
 0.00000 0.00000 0.00000 ==>  0.25000 0.25000 0.25000 ( ndiv:    69 )
 0.25000 0.25000 0.25000 ==>  0.25000-0.25000 0.25000 ( ndiv:    57 )
 0.25000-0.25000 0.25000 ==>  0.25000 0.25000 0.25000 ( ndiv:    57 )
 0.25000 0.25000 0.25000 ==> -0.50000 0.50000 0.50000 ( ndiv:    69 )



--- !WARNING
src_file: m_mpinfo.F90
src_line: 2351
message: |
    nkpt*nsppol (26) is not a multiple of nproc_spkpt (4)
    The k-point parallelisation is INEFFICIENT. 
    Ignore this warning if this is not a GS run.
...

 For input ecut=  3.300000E+01 best grid ngfft=      30      30      30
       max ecut=  3.806964E+01

 ==== FFT mesh ====
  FFT mesh divisions ........................    30   30   30
  Augmented FFT divisions ...................    31   31   30
  FFT algorithm .............................   312
  FFT cache size ............................    16
 getmpw: optimal value of mpw= 1112

--- !WARNING
src_file: m_mpinfo.F90
src_line: 2351
message: |
    nkpt*nsppol (462) is not a multiple of nproc_spkpt (4)
    The k-point parallelisation is INEFFICIENT. 
    Ignore this warning if this is not a GS run.
...

 For input ecut=  3.300000E+01 best grid ngfft=      30      30      30
       max ecut=  3.806964E+01

 ==== FFT mesh ====
  FFT mesh divisions ........................    30   30   30
  Augmented FFT divisions ...................    31   31   30
  FFT algorithm .............................   312
  FFT cache size ............................    16
 getmpw: optimal value of mpw= 1144
 DATASET    1 : space group Im -3 m (#229); Bravais cI (body-center cubic)

 getdim_nloc: deduce lmnmax  =  18, lnmax  =   6,
                      lmnmaxso=  18, lnmaxso=   6.
memory: analysis of memory needs
================================================================================
 Values of the parameters that define the memory need for DATASET  1.
     intxc =       0    ionmov =       0      iscf =       7    lmnmax =       6
     lnmax =       6     mgfft =      30  mpssoang =       3    mqgrid =    3001
     natom =       1  nloc_mem =       1    nspden =       1   nspinor =       1
    nsppol =       1      nsym =      48    n1xccc =    2501    ntypat =       1
    occopt =       4   xclevel =       2
-    mband =           8        mffmem =           1         mkmem =           7
       mpw =        1112          nfft =       27000          nkpt =          26
================================================================================
P This job should need less than                      11.177 Mbytes of memory.
  Rough estimation (10% accuracy) of disk space for files :
_ WF disk file :      3.531 Mbytes ; DEN or POT disk file :      0.208 Mbytes.
================================================================================

 Biggest array : f_fftgr(disk), with      3.2979 MBytes.
 memana : allocated an array of      3.298 Mbytes, for testing purposes.
 memana: allocated      11.177Mbytes, for testing purposes. 
 The job will continue.
 DATASET    2 : space group Im -3 m (#229); Bravais cI (body-center cubic)

 getdim_nloc: deduce lmnmax  =  18, lnmax  =   6,
                      lmnmaxso=  18, lnmaxso=   6.
memory: analysis of memory needs
================================================================================
 Values of the parameters that define the memory need for DATASET  2.
     intxc =       0    ionmov =       0      iscf =      -2    lmnmax =       6
     lnmax =       6     mgfft =      30  mpssoang =       3    mqgrid =    3001
     natom =       1  nloc_mem =       1    nspden =       1   nspinor =       1
    nsppol =       1      nsym =      48    n1xccc =    2501    ntypat =       1
    occopt =       4   xclevel =       2
-    mband =          24        mffmem =           1         mkmem =         116
       mpw =        1144          nfft =       27000          nkpt =         462
================================================================================
P This job should need less than                      58.238 Mbytes of memory.
  Rough estimation (10% accuracy) of disk space for files :
_ WF disk file :    193.555 Mbytes ; DEN or POT disk file :      0.208 Mbytes.
================================================================================

 Biggest array : cg(disk), with     48.5997 MBytes.
 memana : allocated an array of     48.600 Mbytes, for testing purposes.
 memana: allocated      58.238Mbytes, for testing purposes. 
 The job will continue.
--------------------------------------------------------------------------------
------------- Echo of variables that govern the present computation ------------
--------------------------------------------------------------------------------
-
- outvars: echo of selected default values
-   iomode0 =  0 , fftalg0 =312 , wfoptalg0 =  0
-
- outvars: echo of global parameters not present in the input file
-  max_nthreads =    8
-
 -outvars: echo values of preprocessed input variables --------
 
 These variables are accessible in NetCDF format (./outdata/ebnd_OUT.nc)

            acell      6.2360000000E+00  6.2360000000E+00  6.2360000000E+00 Bohr
              amu      9.29063800E+01
             ecut      3.30000000E+01 Hartree
           enunit1          0
           enunit2          1
-          fftalg         312
           getden1          0
           getden2         -1
             iscf1          7
             iscf2         -2
           istwfk2       2    0    0    0    0    0    0    0    0    0
                         0    0    0    0    0    0    0    0    0    0
                         0    0    0    0    0    0    0    0    0    0
                         0    0    0    0    0    0    0    0    0    0
                         0    0    0    0    0    0    0    0    0    0
                       outvar_i_n : Printing only first  50 k-points.
              ixc          11
           jdtset        1    2
              kpt1     6.25000000E-02  6.25000000E-02  6.25000000E-02
                       1.87500000E-01  6.25000000E-02  6.25000000E-02
                       3.12500000E-01  6.25000000E-02  6.25000000E-02
                       4.37500000E-01  6.25000000E-02  6.25000000E-02
                      -6.25000000E-02  6.25000000E-02  6.25000000E-02
                       1.87500000E-01  1.87500000E-01  6.25000000E-02
                       3.12500000E-01  1.87500000E-01  6.25000000E-02
                      -1.87500000E-01  1.87500000E-01  6.25000000E-02
                       3.12500000E-01  3.12500000E-01  6.25000000E-02
                      -3.12500000E-01  3.12500000E-01  6.25000000E-02
                      -1.87500000E-01  3.12500000E-01  6.25000000E-02
                      -4.37500000E-01  4.37500000E-01  6.25000000E-02
                      -3.12500000E-01  4.37500000E-01  6.25000000E-02
                      -4.37500000E-01 -4.37500000E-01  6.25000000E-02
                      -3.12500000E-01 -4.37500000E-01  6.25000000E-02
                       1.87500000E-01  1.87500000E-01  1.87500000E-01
                       3.12500000E-01  1.87500000E-01  1.87500000E-01
                      -1.87500000E-01  1.87500000E-01  1.87500000E-01
                      -3.12500000E-01  3.12500000E-01  1.87500000E-01
                      -4.37500000E-01  4.37500000E-01  1.87500000E-01
                      -3.12500000E-01  4.37500000E-01  1.87500000E-01
                      -4.37500000E-01 -4.37500000E-01  1.87500000E-01
                      -3.12500000E-01  3.12500000E-01  3.12500000E-01
                      -4.37500000E-01  4.37500000E-01  3.12500000E-01
                      -4.37500000E-01 -4.37500000E-01  3.12500000E-01
                      -4.37500000E-01  4.37500000E-01  4.37500000E-01
              kpt2     0.00000000E+00  0.00000000E+00  0.00000000E+00
                      -6.25000000E-03  6.25000000E-03  6.25000000E-03
                      -1.25000000E-02  1.25000000E-02  1.25000000E-02
                      -1.87500000E-02  1.87500000E-02  1.87500000E-02
                      -2.50000000E-02  2.50000000E-02  2.50000000E-02
                      -3.12500000E-02  3.12500000E-02  3.12500000E-02
                      -3.75000000E-02  3.75000000E-02  3.75000000E-02
                      -4.37500000E-02  4.37500000E-02  4.37500000E-02
                      -5.00000000E-02  5.00000000E-02  5.00000000E-02
                      -5.62500000E-02  5.62500000E-02  5.62500000E-02
                      -6.25000000E-02  6.25000000E-02  6.25000000E-02
                      -6.87500000E-02  6.87500000E-02  6.87500000E-02
                      -7.50000000E-02  7.50000000E-02  7.50000000E-02
                      -8.12500000E-02  8.12500000E-02  8.12500000E-02
                      -8.75000000E-02  8.75000000E-02  8.75000000E-02
                      -9.37500000E-02  9.37500000E-02  9.37500000E-02
                      -1.00000000E-01  1.00000000E-01  1.00000000E-01
                      -1.06250000E-01  1.06250000E-01  1.06250000E-01
                      -1.12500000E-01  1.12500000E-01  1.12500000E-01
                      -1.18750000E-01  1.18750000E-01  1.18750000E-01
                      -1.25000000E-01  1.25000000E-01  1.25000000E-01
                      -1.31250000E-01  1.31250000E-01  1.31250000E-01
                      -1.37500000E-01  1.37500000E-01  1.37500000E-01
                      -1.43750000E-01  1.43750000E-01  1.43750000E-01
                      -1.50000000E-01  1.50000000E-01  1.50000000E-01
                      -1.56250000E-01  1.56250000E-01  1.56250000E-01
                      -1.62500000E-01  1.62500000E-01  1.62500000E-01
                      -1.68750000E-01  1.68750000E-01  1.68750000E-01
                      -1.75000000E-01  1.75000000E-01  1.75000000E-01
                      -1.81250000E-01  1.81250000E-01  1.81250000E-01
                      -1.87500000E-01  1.87500000E-01  1.87500000E-01
                      -1.93750000E-01  1.93750000E-01  1.93750000E-01
                      -2.00000000E-01  2.00000000E-01  2.00000000E-01
                      -2.06250000E-01  2.06250000E-01  2.06250000E-01
                      -2.12500000E-01  2.12500000E-01  2.12500000E-01
                      -2.18750000E-01  2.18750000E-01  2.18750000E-01
                      -2.25000000E-01  2.25000000E-01  2.25000000E-01
                      -2.31250000E-01  2.31250000E-01  2.31250000E-01
                      -2.37500000E-01  2.37500000E-01  2.37500000E-01
                      -2.43750000E-01  2.43750000E-01  2.43750000E-01
                      -2.50000000E-01  2.50000000E-01  2.50000000E-01
                      -2.56250000E-01  2.56250000E-01  2.56250000E-01
                      -2.62500000E-01  2.62500000E-01  2.62500000E-01
                      -2.68750000E-01  2.68750000E-01  2.68750000E-01
                      -2.75000000E-01  2.75000000E-01  2.75000000E-01
                      -2.81250000E-01  2.81250000E-01  2.81250000E-01
                      -2.87500000E-01  2.87500000E-01  2.87500000E-01
                      -2.93750000E-01  2.93750000E-01  2.93750000E-01
                      -3.00000000E-01  3.00000000E-01  3.00000000E-01
                      -3.06250000E-01  3.06250000E-01  3.06250000E-01
                       outvar_i_n : Printing only first  50 k-points.
           kptopt1          1
           kptopt2         -7
         kptrlatt        8    0    0      0    8    0      0    0    8
          kptrlen1     4.32042753E+01
          kptrlen2     3.00000000E+01
P           mkmem1          7
P           mkmem2        116
            natom           1
            nband1          8
            nband2         24
           nbdbuf1          0
           nbdbuf2          2
           ndtset           2
           ndivsm1          0
           ndivsm2         40
            ngfft          30      30      30
             nkpt1         26
             nkpt2        462
            nstep          80
             nsym          48
           ntypat           1
              occ      2.000000  2.000000  2.000000  2.000000  2.000000  2.000000
                       1.000000  0.000000
                       2.000000  2.000000  2.000000  2.000000  2.000000  2.000000
                       1.000000  0.000000
                       2.000000  2.000000  2.000000  2.000000  2.000000  2.000000
                       1.000000  0.000000
                       2.000000  2.000000  2.000000  2.000000  2.000000  2.000000
                       1.000000  0.000000
                       2.000000  2.000000  2.000000  2.000000  2.000000  2.000000
                       1.000000  0.000000
                       2.000000  2.000000  2.000000  2.000000  2.000000  2.000000
                       1.000000  0.000000
                       2.000000  2.000000  2.000000  2.000000  2.000000  2.000000
                       1.000000  0.000000
                       2.000000  2.000000  2.000000  2.000000  2.000000  2.000000
                       1.000000  0.000000
                       2.000000  2.000000  2.000000  2.000000  2.000000  2.000000
                       1.000000  0.000000
                       2.000000  2.000000  2.000000  2.000000  2.000000  2.000000
                       1.000000  0.000000
                       2.000000  2.000000  2.000000  2.000000  2.000000  2.000000
                       1.000000  0.000000
                       2.000000  2.000000  2.000000  2.000000  2.000000  2.000000
                       1.000000  0.000000
                       2.000000  2.000000  2.000000  2.000000  2.000000  2.000000
                       1.000000  0.000000
                       2.000000  2.000000  2.000000  2.000000  2.000000  2.000000
                       1.000000  0.000000
                       2.000000  2.000000  2.000000  2.000000  2.000000  2.000000
                       1.000000  0.000000
                       2.000000  2.000000  2.000000  2.000000  2.000000  2.000000
                       1.000000  0.000000
                       2.000000  2.000000  2.000000  2.000000  2.000000  2.000000
                       1.000000  0.000000
                       2.000000  2.000000  2.000000  2.000000  2.000000  2.000000
                       1.000000  0.000000
                       2.000000  2.000000  2.000000  2.000000  2.000000  2.000000
                       1.000000  0.000000
                       2.000000  2.000000  2.000000  2.000000  2.000000  2.000000
                       1.000000  0.000000
                       2.000000  2.000000  2.000000  2.000000  2.000000  2.000000
                       1.000000  0.000000
                       2.000000  2.000000  2.000000  2.000000  2.000000  2.000000
                       1.000000  0.000000
                       2.000000  2.000000  2.000000  2.000000  2.000000  2.000000
                       1.000000  0.000000
                       2.000000  2.000000  2.000000  2.000000  2.000000  2.000000
                       1.000000  0.000000
                       2.000000  2.000000  2.000000  2.000000  2.000000  2.000000
                       1.000000  0.000000
                       2.000000  2.000000  2.000000  2.000000  2.000000  2.000000
                       1.000000  0.000000
           occopt           4
            rprim     -5.0000000000E-01  5.0000000000E-01  5.0000000000E-01
                       5.0000000000E-01 -5.0000000000E-01  5.0000000000E-01
                       5.0000000000E-01  5.0000000000E-01 -5.0000000000E-01
           shiftk      5.00000000E-01  5.00000000E-01  5.00000000E-01
          spgroup         229
           symrel      1  0  0   0  1  0   0  0  1      -1  0  0   0 -1  0   0  0 -1
                      -1 -1 -1   0  0  1   0  1  0       1  1  1   0  0 -1   0 -1  0
                       0  1  0   1  0  0  -1 -1 -1       0 -1  0  -1  0  0   1  1  1
                       0  0  1  -1 -1 -1   1  0  0       0  0 -1   1  1  1  -1  0  0
                       0  1  0   1  0  0   0  0  1       0 -1  0  -1  0  0   0  0 -1
                      -1 -1 -1   0  0  1   1  0  0       1  1  1   0  0 -1  -1  0  0
                       1  0  0   0  1  0  -1 -1 -1      -1  0  0   0 -1  0   1  1  1
                       0  0  1  -1 -1 -1   0  1  0       0  0 -1   1  1  1   0 -1  0
                      -1 -1 -1   1  0  0   0  0  1       1  1  1  -1  0  0   0  0 -1
                       0  1  0   0  0  1   1  0  0       0 -1  0   0  0 -1  -1  0  0
                       1  0  0  -1 -1 -1   0  1  0      -1  0  0   1  1  1   0 -1  0
                       0  0  1   0  1  0  -1 -1 -1       0  0 -1   0 -1  0   1  1  1
                       1  0  0  -1 -1 -1   0  0  1      -1  0  0   1  1  1   0  0 -1
                       0  1  0   0  0  1  -1 -1 -1       0 -1  0   0  0 -1   1  1  1
                      -1 -1 -1   1  0  0   0  1  0       1  1  1  -1  0  0   0 -1  0
                       0  0  1   0  1  0   1  0  0       0  0 -1   0 -1  0  -1  0  0
                       0  1  0  -1 -1 -1   0  0  1       0 -1  0   1  1  1   0  0 -1
                       1  0  0   0  0  1  -1 -1 -1      -1  0  0   0  0 -1   1  1  1
                      -1 -1 -1   0  1  0   1  0  0       1  1  1   0 -1  0  -1  0  0
                       0  0  1   1  0  0   0  1  0       0  0 -1  -1  0  0   0 -1  0
                      -1 -1 -1   0  1  0   0  0  1       1  1  1   0 -1  0   0  0 -1
                       1  0  0   0  0  1   0  1  0      -1  0  0   0  0 -1   0 -1  0
                       0  1  0  -1 -1 -1   1  0  0       0 -1  0   1  1  1  -1  0  0
                       0  0  1   1  0  0  -1 -1 -1       0  0 -1  -1  0  0   1  1  1
           toldfe1     1.00000000E-06 Hartree
           toldfe2     0.00000000E+00 Hartree
           tolwfr1     0.00000000E+00
           tolwfr2     1.00000000E-12
           tsmear      1.00000000E-03 Hartree
            typat      1
              wtk1       0.01563    0.04688    0.04688    0.02344    0.01172    0.04688
                         0.09375    0.04688    0.01563    0.04688    0.04688    0.04688
                         0.09375    0.04688    0.04688    0.01563    0.02344    0.01172
                         0.04688    0.04688    0.04688    0.04688    0.01172    0.04688
                         0.01563    0.01172
              wtk2       1.00000    1.00000    1.00000    1.00000    1.00000    1.00000
                         1.00000    1.00000    1.00000    1.00000    1.00000    1.00000
                         1.00000    1.00000    1.00000    1.00000    1.00000    1.00000
                         1.00000    1.00000    1.00000    1.00000    1.00000    1.00000
                         1.00000    1.00000    1.00000    1.00000    1.00000    1.00000
                         1.00000    1.00000    1.00000    1.00000    1.00000    1.00000
                         1.00000    1.00000    1.00000    1.00000    1.00000    1.00000
                         1.00000    1.00000    1.00000    1.00000    1.00000    1.00000
                         1.00000    1.00000
                       outvars : Printing only first  50 k-points.
            znucl       41.00000

================================================================================

 chkinp: Checking input parameters for consistency, jdtset=   1.

 chkinp: Checking input parameters for consistency, jdtset=   2.
 DATA TYPE INFORMATION: 
 REAL:      Data type name: REAL(DP) 
            Kind value:      8
            Precision:      15
            Smallest nonnegligible quantity relative to 1:  0.22204460E-015
            Smallest positive number:                       0.22250739E-307
            Largest representable number:                   0.17976931E+309
 INTEGER:   Data type name: INTEGER(default) 
            Kind value: 4
            Bit size:   32
            Largest representable number: 2147483647
 LOGICAL:   Data type name: LOGICAL 
            Kind value: 4
 CHARACTER: Data type name: CHARACTER             Kind value: 1

  ==== OpenMP parallelism is ON ====
- Max_threads:       8
- Num_threads:       8
- Num_procs:         8
- Dynamic:           F
 
  ==== Using MPI-2 specifications ==== 
  MPI-IO support is ON
  xmpi_tag_ub ................   2147483647
  xmpi_bsize_ch ..............            1
  xmpi_bsize_int .............            4
  xmpi_bsize_sp ..............            4
  xmpi_bsize_dp ..............            8
  xmpi_bsize_spc .............            8
  xmpi_bsize_dpc .............           16
  xmpio_bsize_frm ............            4
  xmpi_address_kind ..........            8
  xmpi_offset_kind ...........            8
  MPI_WTICK ..................    1.0000000000000002E-006

================================================================================
== DATASET  1 ==================================================================
-   mpi_nproc: 4, omp_nthreads: 8 (-1 if OMP is not activated)


--- !COMMENT
src_file: m_xgScalapack.F90
src_line: 241
message: |
    xgScalapack in auto mode
...


 getdim_nloc: deduce lmnmax  =  18, lnmax  =   6,
                      lmnmaxso=  18, lnmaxso=   6.
 Exchange-correlation functional for the present dataset will be:
  GGA: Perdew-Burke-Ernzerhof functional - ixc=11
 Citation for XC functional:
  J.P.Perdew, K.Burke, M.Ernzerhof, PRL 77, 3865 (1996)

 Unit cell volume ucvol=  1.2125184E+02 bohr^3
 Angles (23,13,12)=  1.09471221E+02  1.09471221E+02  1.09471221E+02 degrees

 getcut: wavevector=  0.0000  0.0000  0.0000  ngfft=  30  30  30
         ecut(hartree)=     33.000   => boxcut(ratio)=   2.14814
- pspini: atom type   1  psp file is ../Nb.psp8
- pspatm: opening atomic psp file    ../Nb.psp8
- Nb    ONCVPSP-3.2.3.1  r_core=   1.50879   1.40458   1.40458
- 41.00000  13.00000    170510                znucl, zion, pspdat
    8   11    2    4       600   0.00000      pspcod,pspxc,lmax,lloc,mmax,r2well
    5.99000000000000    5.00000000000000    0.00000000000000   rchrg,fchrg,qchrg
     nproj     2     2     2
     extension_switch     1
  valence charge (before rescaling) integrates to:    12.881811743666191     
  pspatm : epsatm=   15.70505966
         --- l  ekb(1:nproj) -->
             0   12.947070    1.341137
             1    7.760978    0.779696
             2    3.534518    1.097759
 pspatm: atomic psp has been read  and splines computed

   2.04165776E+02                                ecore*ucvol(ha*bohr**3)
 ==== Info on pseudopotentials ====
  Norm-conserving pseudopotentials
  Number of pseudopotentials ..    1
  Number of types of atoms   ..    1
  Scalar calculation (no spin-orbit term)
  Nonlocal part applied using Legendre polynomials
  Max number of non-local projectors over l and type   2
  Highest angular momentum +1 .......   3
  Max number of (l,n)   components ..   6
  Max number of (l,m,n) components ..   6

 Pseudo-Core Charge Info: 
   Number of radial points for pseudo-core charge .. 2501
   XC core-correction treatment (optnlxccc) ........    1
   Radius for pseudo-core charge for each type ..... 

  - Atom type    1 has pseudo-core radius ..  5.9900

 Info on the Q-grid used for form factors in spline form: 
   Number of q-points for radial functions ffspl ..   3001
   Number of q-points for vlspl ...................   3001
   vloc is computed in Reciprocal Space
   model core charge treated in real-space

  XC functional for type 1 is 11
  Pseudo valence available: yes

 symatm: atom number 1 is reached starting at atom
   1  1  1  1  1  1  1  1  1  1  1  1  1  1  1  1  1  1  1  1  1  1  1  1
   1  1  1  1  1  1  1  1  1  1  1  1  1  1  1  1  1  1  1  1  1  1  1  1
 wfconv:     8 bands initialized randomly with npw=  1079, for ikpt=     1
 wfconv:     8 bands initialized randomly with npw=  1090, for ikpt=     2
 wfconv:     8 bands initialized randomly with npw=  1094, for ikpt=     3
 wfconv:     8 bands initialized randomly with npw=  1094, for ikpt=     4
 wfconv:     8 bands initialized randomly with npw=  1080, for ikpt=     5
 wfconv:     8 bands initialized randomly with npw=  1092, for ikpt=     6
 wfconv:     8 bands initialized randomly with npw=  1108, for ikpt=     7
_setup2: Arith. and geom. avg. npw (full set) are    1097.266    1097.237
 initro: for itypat=  1, take pseudo charge density from pp file

================================================================================

 getcut: wavevector=  0.0000  0.0000  0.0000  ngfft=  30  30  30
         ecut(hartree)=     33.000   => boxcut(ratio)=   2.14814

 1/G**2 cut-off applied in the following step : cutoff-mode = CRYSTAL

 1/G**2 cut-off applied in the following step : cutoff-mode = CRYSTAL

 1/G**2 cut-off applied in the following step : cutoff-mode = CRYSTAL

 ITER STEP NUMBER     1
 Max number of non-self-consistent loops: 2
 newocc: new Fermi energy is       0.561421 , with nelect=     13.000000, Number of bisection calls: 48
 mkrho: echo density (plane-wave part only)
 Total charge density [el/Bohr^3]
)     Maximum=    7.5024E-01  at reduced coord.    0.8333    0.8333    0.8333
)     Minimum=    4.2272E-03  at reduced coord.    0.0000    0.0000    0.0000
   Integrated=    1.3000E+01
 Total charge density [el/Bohr^3]
)     Maximum=    7.5024E-01  at reduced coord.    0.8333    0.8333    0.8333
)     Minimum=    4.2272E-03  at reduced coord.    0.0000    0.0000    0.0000
   Integrated=    1.3000E+01

 1/G**2 cut-off applied in the following step : cutoff-mode = CRYSTAL
 ETOT  1  -62.252514935076    -6.225E+01 1.023E-01 6.359E+01
 scprqt: <Vxc>= -4.7789620E-01 hartree

 Simple mixing update:
  residual square of the potential:    32.813995510718485
{SCF_istep: 1 , Vnl|psi>: 559 , wall_time: '  5.59 [s] '} <<< TIME

 ITER STEP NUMBER     2
 Max number of non-self-consistent loops: 2
 newocc: new Fermi energy is       0.526378 , with nelect=     13.000000, Number of bisection calls: 48
 mkrho: echo density (plane-wave part only)
 Total charge density [el/Bohr^3]
)     Maximum=    7.8198E-01  at reduced coord.    0.8333    0.8333    0.8333
)     Minimum=    4.0542E-03  at reduced coord.    0.0000    0.0000    0.0000
   Integrated=    1.3000E+01
 Total charge density [el/Bohr^3]
)     Maximum=    7.8198E-01  at reduced coord.    0.8333    0.8333    0.8333
)     Minimum=    4.0542E-03  at reduced coord.    0.0000    0.0000    0.0000
   Integrated=    1.3000E+01
 ETOT  2  -62.281819392261    -2.930E-02 4.481E-03 8.197E+00
 scprqt: <Vxc>= -4.7138181E-01 hartree

 Pulay update with  1 previous iterations:
 mixing of old trial potential: alpha(m:m-4)=  0.738      0.262
{SCF_istep: 2 , Vnl|psi>: 558 , wall_time: '  5.01 [s] '} <<< TIME

 ITER STEP NUMBER     3
 newocc: new Fermi energy is       0.537944 , with nelect=     13.000000, Number of bisection calls: 48
 mkrho: echo density (plane-wave part only)
 Total charge density [el/Bohr^3]
)     Maximum=    7.7276E-01  at reduced coord.    0.8333    0.8333    0.8333
)     Minimum=    4.0329E-03  at reduced coord.    0.0000    0.0000    0.0000
   Integrated=    1.3000E+01
 Total charge density [el/Bohr^3]
)     Maximum=    7.7276E-01  at reduced coord.    0.8333    0.8333    0.8333
)     Minimum=    4.0329E-03  at reduced coord.    0.0000    0.0000    0.0000
   Integrated=    1.3000E+01
 ETOT  3  -62.283682058945    -1.863E-03 3.033E-03 2.088E-03
 scprqt: <Vxc>= -4.7301874E-01 hartree

 Pulay update with  2 previous iterations:
 mixing of old trial potential: alpha(m:m-4)=  0.988      0.878E-02  0.367E-02
{SCF_istep: 3 , Vnl|psi>: 265 , wall_time: '  3.10 [s] '} <<< TIME

 ITER STEP NUMBER     4
 newocc: new Fermi energy is       0.536345 , with nelect=     13.000000, Number of bisection calls: 45
 mkrho: echo density (plane-wave part only)
 Total charge density [el/Bohr^3]
)     Maximum=    7.7285E-01  at reduced coord.    0.8333    0.8333    0.8333
)     Minimum=    4.0404E-03  at reduced coord.    0.0000    0.0000    0.0000
   Integrated=    1.3000E+01
 Total charge density [el/Bohr^3]
)     Maximum=    7.7285E-01  at reduced coord.    0.8333    0.8333    0.8333
)     Minimum=    4.0404E-03  at reduced coord.    0.0000    0.0000    0.0000
   Integrated=    1.3000E+01
 ETOT  4  -62.283689459777    -7.401E-06 9.859E-04 1.373E-04
 scprqt: <Vxc>= -4.7301746E-01 hartree

 Pulay update with  3 previous iterations:
 mixing of old trial potential: alpha(m:m-4)=   1.07     -0.618E-01 -0.618E-02 -0.901E-03
{SCF_istep: 4 , Vnl|psi>: 280 , wall_time: '  3.03 [s] '} <<< TIME

 ITER STEP NUMBER     5
 newocc: new Fermi energy is       0.536367 , with nelect=     13.000000, Number of bisection calls: 48
 mkrho: echo density (plane-wave part only)
 Total charge density [el/Bohr^3]
)     Maximum=    7.7280E-01  at reduced coord.    0.8333    0.8333    0.8333
)     Minimum=    4.0404E-03  at reduced coord.    0.0000    0.0000    0.0000
   Integrated=    1.3000E+01
 Total charge density [el/Bohr^3]
)     Maximum=    7.7280E-01  at reduced coord.    0.8333    0.8333    0.8333
)     Minimum=    4.0404E-03  at reduced coord.    0.0000    0.0000    0.0000
   Integrated=    1.3000E+01
 ETOT  5  -62.283690085190    -6.254E-07 2.712E-03 2.981E-05
 scprqt: <Vxc>= -4.7303099E-01 hartree

 Pulay update with  4 previous iterations:
 mixing of old trial potential: alpha(m:m-4)=   1.07     -0.747E-01  0.194E-02  0.141E-02 -0.316E-03
{SCF_istep: 5 , Vnl|psi>: 267 , wall_time: '  3.18 [s] '} <<< TIME

 ITER STEP NUMBER     6
 newocc: new Fermi energy is       0.536341 , with nelect=     13.000000, Number of bisection calls: 48
 mkrho: echo density (plane-wave part only)
 Total charge density [el/Bohr^3]
)     Maximum=    7.7282E-01  at reduced coord.    0.8333    0.8333    0.8333
)     Minimum=    4.0405E-03  at reduced coord.    0.0000    0.0000    0.0000
   Integrated=    1.3000E+01
 Total charge density [el/Bohr^3]
)     Maximum=    7.7282E-01  at reduced coord.    0.8333    0.8333    0.8333
)     Minimum=    4.0405E-03  at reduced coord.    0.0000    0.0000    0.0000
   Integrated=    1.3000E+01
 ETOT  6  -62.283690166887    -8.170E-08 6.127E-04 7.276E-07
 scprqt: <Vxc>= -4.7302702E-01 hartree

 At SCF step    6, etot is converged : 
  for the second time, diff in etot=  8.170E-08 < toldfe=  1.000E-06
 
 -------------------------------------------------------------------------------------------------
 Ekinetic   = :     1.819280E+01 Ha ,    4.950511E+02 eV
 Evext_l    = :    -3.497740E+01 Ha ,   -9.517834E+02 eV
 Evext_nl   = :     7.754078E+00 Ha ,    2.109992E+02 eV
 Epsp_core  = :     1.683816E+00 Ha ,    4.581896E+01 eV
 Ehartree   = :     7.447801E+00 Ha ,    2.026650E+02 eV
 Exc_ks     = :    -1.307188E+01 Ha ,   -3.557039E+02 eV
 Enn        = :    -4.931290E+01 Ha ,   -1.341872E+03 eV
 -------------------------------------------------------------------------------------------------
 Etot       = :    -6.228368E+01 Ha ,   -1.694825E+03 eV
 -------------------------------------------------------------------------------------------------

 Cartesian components of stress tensor (hartree/bohr^3)
  sigma(1 1)=  6.33232583E-05  sigma(3 2)=  0.00000000E+00
  sigma(2 2)=  6.33232583E-05  sigma(3 1)=  0.00000000E+00
  sigma(3 3)=  6.33232583E-05  sigma(2 1)=  0.00000000E+00


 fftdatar_write: About to write data to: ./outdata/ebnd_DS1_DEN with iomode: IO_MODE_FORTRAN
 IO operation , wall:  0.00 [s] , cpu:  0.00 [s] <<< TIME
 Integrated electronic density in atomic spheres:
 ------------------------------------------------
 Atom  Sphere_radius  Integrated_density
    1        2.00000          9.43828737
- Creating HDf5 file without MPI-IO support: ./outdata/ebnd_DS1_GSR.nc
================================================================================

 ----iterations are completed or convergence reached----

 Mean square residual over all n,k,spin=   76.773E-07; max=  61.265E-05
   0.0625  0.0625  0.0625    1  1.97470E-07 kpt; spin; max resid(k); each band:
  1.92E-10 5.91E-11 8.67E-12 8.68E-12 2.32E-10 2.88E-09 2.76E-08 1.97E-07
   0.1875  0.0625  0.0625    1  4.87033E-05 kpt; spin; max resid(k); each band:
  1.54E-10 1.13E-10 2.06E-11 1.13E-11 2.27E-10 3.69E-11 1.09E-10 4.87E-05
   0.3125  0.0625  0.0625    1  1.66034E-04 kpt; spin; max resid(k); each band:
  9.83E-11 2.04E-10 2.40E-11 1.37E-11 1.17E-10 3.29E-11 1.31E-08 1.66E-04
   0.4375  0.0625  0.0625    1  2.57592E-04 kpt; spin; max resid(k); each band:
  5.79E-11 2.83E-10 1.98E-11 1.44E-11 7.65E-11 1.85E-11 3.16E-08 2.58E-04
  -0.0625  0.0625  0.0625    1  1.64129E-07 kpt; spin; max resid(k); each band:
  2.04E-10 2.14E-11 7.45E-12 7.46E-12 2.23E-10 3.88E-10 1.64E-07 8.88E-08
   0.1875  0.1875  0.0625    1  8.07261E-05 kpt; spin; max resid(k); each band:
  1.05E-10 1.32E-10 5.13E-11 2.29E-11 2.25E-10 7.08E-11 5.11E-10 8.07E-05
   0.3125  0.1875  0.0625    1  2.12516E-04 kpt; spin; max resid(k); each band:
  4.89E-11 1.82E-10 6.41E-11 2.79E-11 1.19E-10 6.84E-11 4.01E-09 2.13E-04
  -0.1875  0.1875  0.0625    1  2.01342E-05 kpt; spin; max resid(k); each band:
  1.79E-10 8.43E-11 1.60E-11 9.84E-12 2.38E-10 1.62E-07 4.34E-08 2.01E-05
   0.3125  0.3125  0.0625    1  1.76208E-10 kpt; spin; max resid(k); each band:
  2.19E-11 1.36E-10 1.33E-10 2.80E-11 6.13E-11 1.61E-10 1.76E-10 1.60E-11
  -0.3125  0.3125  0.0625    1  2.01180E-07 kpt; spin; max resid(k); each band:
  1.29E-10 1.82E-10 8.30E-12 1.01E-11 1.82E-10 5.09E-11 1.20E-09 2.01E-07
  -0.1875  0.3125  0.0625    1  1.04982E-05 kpt; spin; max resid(k); each band:
  1.37E-10 1.15E-10 3.37E-11 1.25E-11 2.27E-10 2.04E-09 5.13E-09 1.05E-05
  -0.4375  0.4375  0.0625    1  9.61434E-07 kpt; spin; max resid(k); each band:
  7.23E-11 2.35E-10 8.44E-12 1.01E-11 7.51E-11 7.46E-12 3.28E-09 9.61E-07
  -0.3125  0.4375  0.0625    1  2.23775E-06 kpt; spin; max resid(k); each band:
  7.68E-11 1.63E-10 4.45E-11 1.42E-11 1.31E-10 8.30E-11 2.86E-09 2.24E-06
  -0.4375 -0.4375  0.0625    1  1.28529E-06 kpt; spin; max resid(k); each band:
  5.28E-11 1.63E-10 4.30E-11 1.42E-11 7.80E-11 3.59E-11 3.12E-10 1.29E-06
  -0.3125 -0.4375  0.0625    1  8.71613E-05 kpt; spin; max resid(k); each band:
  3.59E-11 1.27E-10 9.53E-11 7.32E-12 1.89E-10 9.50E-11 2.52E-10 8.72E-05
   0.1875  0.1875  0.1875    1  5.26554E-10 kpt; spin; max resid(k); each band:
  5.34E-11 1.46E-10 6.17E-11 6.17E-11 7.33E-11 8.25E-11 5.27E-10 3.82E-10
   0.3125  0.1875  0.1875    1  6.88721E-05 kpt; spin; max resid(k); each band:
  1.51E-11 1.58E-10 9.01E-11 6.91E-11 1.15E-10 7.67E-11 9.09E-10 6.89E-05
  -0.1875  0.1875  0.1875    1  1.16312E-05 kpt; spin; max resid(k); each band:
  1.48E-10 1.11E-10 2.66E-11 2.66E-11 2.84E-10 1.61E-06 9.08E-09 1.16E-05
  -0.3125  0.3125  0.1875    1  4.16547E-07 kpt; spin; max resid(k); each band:
  8.89E-11 1.42E-10 2.62E-11 3.79E-11 1.98E-10 1.33E-10 1.73E-08 4.17E-07
  -0.4375  0.4375  0.1875    1  6.35295E-09 kpt; spin; max resid(k); each band:
  5.32E-11 1.21E-10 2.53E-11 3.83E-11 7.24E-11 1.76E-10 2.75E-11 6.35E-09
  -0.3125  0.4375  0.1875    1  1.64111E-07 kpt; spin; max resid(k); each band:
  4.04E-11 1.05E-10 6.04E-11 2.88E-11 1.59E-10 3.69E-11 2.84E-10 1.64E-07
  -0.4375 -0.4375  0.1875    1  2.46776E-07 kpt; spin; max resid(k); each band:
  3.52E-11 7.77E-11 6.88E-11 2.59E-11 6.70E-11 1.01E-10 2.54E-10 2.47E-07
  -0.3125  0.3125  0.3125    1  1.11255E-05 kpt; spin; max resid(k); each band:
  3.48E-11 1.09E-10 4.69E-11 5.45E-11 1.79E-10 1.07E-11 8.59E-09 1.11E-05
  -0.4375  0.4375  0.3125    1  1.02775E-06 kpt; spin; max resid(k); each band:
  2.42E-11 5.27E-11 4.76E-11 5.86E-11 3.23E-11 9.58E-11 1.03E-06 2.55E-07
  -0.4375 -0.4375  0.3125    1  1.99159E-08 kpt; spin; max resid(k); each band:
  1.51E-11 4.68E-11 5.24E-11 4.09E-11 3.01E-11 3.36E-11 1.99E-08 1.89E-10
  -0.4375  0.4375  0.4375    1  6.12650E-04 kpt; spin; max resid(k); each band:
  2.82E-12 2.24E-11 4.80E-11 4.35E-11 3.98E-12 2.35E-11 3.46E-09 6.13E-04

   outwf: writing wavefunctions to: ./outdata/ebnd_DS1_WFK with iomode: IO_MODE_FORTRAN_MASTER
 WFK output , wall:  0.27 [s] , cpu:  0.05 [s] <<< TIME
 prteigrs : about to open file ./outdata/ebnd_DS1_EIG
 Fermi (or HOMO) energy (hartree) =   0.53634   Average Vxc (hartree)=  -0.47303
 Eigenvalues (hartree) for nkpt=  26  k points:
 kpt#   1, nband=  8, wtk=  0.01563, kpt=  0.0625  0.0625  0.0625 (reduced coord)
  -1.46077   -0.56734   -0.55660   -0.55660    0.34930    0.52993    0.52993    0.58812
      occupation numbers for kpt#   1
   2.00000    2.00000    2.00000    2.00000    2.00000    2.00000    2.00000    0.00000
 kpt#   2, nband=  8, wtk=  0.04688, kpt=  0.1875  0.0625  0.0625 (reduced coord)
  -1.45776   -0.58347   -0.56271   -0.55703    0.39799    0.50126    0.51399    0.63999
      occupation numbers for kpt#   2
   2.00000    2.00000    2.00000    2.00000    2.00000    2.00000    2.00000    0.00000
 kpt#   3, nband=  8, wtk=  0.04688, kpt=  0.3125  0.0625  0.0625 (reduced coord)
  -1.45469   -0.59796   -0.56963   -0.55743    0.41408    0.47958    0.55131    0.65584
      occupation numbers for kpt#   3
   2.00000    2.00000    2.00000    2.00000    2.00000    2.00000    0.00000    0.00000
 kpt#   4, nband=  8, wtk=  0.02344, kpt=  0.4375  0.0625  0.0625 (reduced coord)
  -1.45341   -0.60373   -0.57251   -0.55760    0.40840    0.47178    0.59684    0.66048
      occupation numbers for kpt#   4
   2.00000    2.00000    2.00000    2.00000    2.00000    2.00000    0.00000    0.00000
 kpt#   5, nband=  8, wtk=  0.01172, kpt= -0.0625  0.0625  0.0625 (reduced coord)
  -1.46201   -0.55807   -0.55643   -0.55643    0.32781    0.54625    0.54625    0.55279
      occupation numbers for kpt#   5
   2.00000    2.00000    2.00000    2.00000    2.00000    0.00000    0.00000    0.00000
 kpt#   6, nband=  8, wtk=  0.04688, kpt=  0.1875  0.1875  0.0625 (reduced coord)
  -1.45513   -0.59358   -0.56841   -0.56062    0.44032    0.48594    0.49952    0.64835
      occupation numbers for kpt#   6
   2.00000    2.00000    2.00000    2.00000    2.00000    2.00000    2.00000    0.00000
 kpt#   7, nband=  8, wtk=  0.09375, kpt=  0.3125  0.1875  0.0625 (reduced coord)
  -1.45326   -0.59761   -0.57675   -0.56200    0.44172    0.47797    0.53870    0.66286
      occupation numbers for kpt#   7
   2.00000    2.00000    2.00000    2.00000    2.00000    2.00000    0.00193    0.00000
 kpt#   8, nband=  8, wtk=  0.04688, kpt= -0.1875  0.1875  0.0625 (reduced coord)
  -1.45959   -0.57165   -0.56090   -0.55695    0.36825    0.52515    0.53607    0.59506
      occupation numbers for kpt#   8
   2.00000    2.00000    2.00000    2.00000    2.00000    2.00000    1.30553    0.00000
 kpt#   9, nband=  8, wtk=  0.01563, kpt=  0.3125  0.3125  0.0625 (reduced coord)
  -1.45267   -0.58870   -0.58870   -0.56377    0.45369    0.50655    0.50655    0.67659
      occupation numbers for kpt#   9
   2.00000    2.00000    2.00000    2.00000    2.00000    2.00000    2.00000    0.00000
 kpt#  10, nband=  8, wtk=  0.04688, kpt= -0.3125  0.3125  0.0625 (reduced coord)
  -1.45612   -0.59051   -0.56701   -0.55701    0.40624    0.49775    0.53421    0.62866
      occupation numbers for kpt#  10
   2.00000    2.00000    2.00000    2.00000    2.00000    2.00000    2.02394    0.00000
 kpt#  11, nband=  8, wtk=  0.04688, kpt= -0.1875  0.3125  0.0625 (reduced coord)
  -1.45671   -0.58422   -0.56639   -0.55981    0.41183    0.50755    0.52287    0.59932
      occupation numbers for kpt#  11
   2.00000    2.00000    2.00000    2.00000    2.00000    2.00000    2.00000    0.00000
 kpt#  12, nband=  8, wtk=  0.04688, kpt= -0.4375  0.4375  0.0625 (reduced coord)
  -1.45363   -0.60325   -0.57122   -0.55704    0.40331    0.48090    0.57913    0.64552
      occupation numbers for kpt#  12
   2.00000    2.00000    2.00000    2.00000    2.00000    2.00000    0.00000    0.00000
 kpt#  13, nband=  8, wtk=  0.09375, kpt= -0.3125  0.4375  0.0625 (reduced coord)
  -1.45379   -0.59658   -0.57367   -0.56048    0.43039    0.49097    0.52835    0.62343
      occupation numbers for kpt#  13
   2.00000    2.00000    2.00000    2.00000    2.00000    2.00000    2.00000    0.00000
 kpt#  14, nband=  8, wtk=  0.04688, kpt= -0.4375 -0.4375  0.0625 (reduced coord)
  -1.45257   -0.60154   -0.57683   -0.56056    0.42437    0.48974    0.54163    0.63059
      occupation numbers for kpt#  14
   2.00000    2.00000    2.00000    2.00000    2.00000    2.00000    0.00000    0.00000
 kpt#  15, nband=  8, wtk=  0.04688, kpt= -0.3125 -0.4375  0.0625 (reduced coord)
  -1.45213   -0.59577   -0.58465   -0.56180    0.45766    0.47978    0.51186    0.64818
      occupation numbers for kpt#  15
   2.00000    2.00000    2.00000    2.00000    2.00000    2.00000    2.00000    0.00000
 kpt#  16, nband=  8, wtk=  0.01563, kpt=  0.1875  0.1875  0.1875 (reduced coord)
  -1.45355   -0.59468   -0.57044   -0.57044    0.47865    0.47865    0.49401    0.67705
      occupation numbers for kpt#  16
   2.00000    2.00000    2.00000    2.00000    2.00000    2.00000    2.00000    0.00000
 kpt#  17, nband=  8, wtk=  0.02344, kpt=  0.3125  0.1875  0.1875 (reduced coord)
  -1.45290   -0.59036   -0.57944   -0.57126    0.47605    0.47773    0.52062    0.68410
      occupation numbers for kpt#  17
   2.00000    2.00000    2.00000    2.00000    2.00000    2.00000    2.00000    0.00000
 kpt#  18, nband=  8, wtk=  0.01172, kpt= -0.1875  0.1875  0.1875 (reduced coord)
  -1.45736   -0.57448   -0.56553   -0.56553    0.40398    0.54273    0.55175    0.55177
      occupation numbers for kpt#  18
   2.00000    2.00000    2.00000    2.00000    2.00000    0.00000    0.00000    0.00000
 kpt#  19, nband=  8, wtk=  0.04688, kpt= -0.3125  0.3125  0.1875 (reduced coord)
  -1.45417   -0.58833   -0.57195   -0.56717    0.43884    0.49478    0.54083    0.58736
      occupation numbers for kpt#  19
   2.00000    2.00000    2.00000    2.00000    2.00000    2.00000    0.00000    0.00000
 kpt#  20, nband=  8, wtk=  0.04688, kpt= -0.4375  0.4375  0.1875 (reduced coord)
  -1.45188   -0.59929   -0.57638   -0.56673    0.43095    0.50079    0.52736    0.59901
      occupation numbers for kpt#  20
   2.00000    2.00000    2.00000    2.00000    2.00000    2.00000    2.00000    0.00000
 kpt#  21, nband=  8, wtk=  0.04688, kpt= -0.3125  0.4375  0.1875 (reduced coord)
  -1.45160   -0.59405   -0.58052   -0.56950    0.45780    0.45944    0.54389    0.61544
      occupation numbers for kpt#  21
   2.00000    2.00000    2.00000    2.00000    2.00000    2.00000    0.00000    0.00000
 kpt#  22, nband=  8, wtk=  0.04688, kpt= -0.4375 -0.4375  0.1875 (reduced coord)
  -1.45053   -0.59614   -0.58520   -0.56937    0.44412    0.46990    0.52705    0.63696
      occupation numbers for kpt#  22
   2.00000    2.00000    2.00000    2.00000    2.00000    2.00000    2.00000    0.00000
 kpt#  23, nband=  8, wtk=  0.01172, kpt= -0.3125  0.3125  0.3125 (reduced coord)
  -1.45139   -0.58745   -0.57877   -0.57877    0.45108    0.45236    0.60151    0.60152
      occupation numbers for kpt#  23
   2.00000    2.00000    2.00000    2.00000    2.00000    2.00000    0.00000    0.00000
 kpt#  24, nband=  8, wtk=  0.04688, kpt= -0.4375  0.4375  0.3125 (reduced coord)
  -1.44939   -0.59353   -0.58346   -0.57981    0.42656    0.43949    0.61173    0.62591
      occupation numbers for kpt#  24
   2.00000    2.00000    2.00000    2.00000    2.00000    2.00000    0.00000    0.00000
 kpt#  25, nband=  8, wtk=  0.01563, kpt= -0.4375 -0.4375  0.3125 (reduced coord)
  -1.44847   -0.59062   -0.59062   -0.58065    0.42017    0.42017    0.61358    0.70856
      occupation numbers for kpt#  25
   2.00000    2.00000    2.00000    2.00000    2.00000    2.00000    0.00000    0.00000
 kpt#  26, nband=  8, wtk=  0.01172, kpt= -0.4375  0.4375  0.4375 (reduced coord)
  -1.44761   -0.58976   -0.58827   -0.58827    0.40253    0.40618    0.70371    0.70875
      occupation numbers for kpt#  26
   2.00000    2.00000    2.00000    2.00000    2.00000    2.00000    0.00000    0.00000
 Total charge density [el/Bohr^3]
)     Maximum=    7.7282E-01  at reduced coord.    0.8333    0.8333    0.8333
)Next maximum=    7.7282E-01  at reduced coord.    0.0000    0.0000    0.8333
)     Minimum=    4.0405E-03  at reduced coord.    0.0000    0.0000    0.0000
)Next minimum=    3.0106E-02  at reduced coord.    0.5000    0.5000    0.0000
   Integrated=    1.3000E+01

 Cartesian components of stress tensor (hartree/bohr^3)
  sigma(1 1)=  6.33232583E-05  sigma(3 2)=  0.00000000E+00
  sigma(2 2)=  6.33232583E-05  sigma(3 1)=  0.00000000E+00
  sigma(3 3)=  6.33232583E-05  sigma(2 1)=  0.00000000E+00

-Cartesian components of stress tensor (GPa)         [Pressure= -1.8630E+00 GPa]
- sigma(1 1)=  1.86303427E+00  sigma(3 2)=  0.00000000E+00
- sigma(2 2)=  1.86303427E+00  sigma(3 1)=  0.00000000E+00
- sigma(3 3)=  1.86303427E+00  sigma(2 1)=  0.00000000E+00
 dataset: 1 , wall: 24.41 [s] , cpu: 12.11 [s] <<< TIME

================================================================================
== DATASET  2 ==================================================================
-   mpi_nproc: 4, omp_nthreads: 8 (-1 if OMP is not activated)


--- !COMMENT
src_file: m_xgScalapack.F90
src_line: 241
message: |
    xgScalapack in auto mode
...

 mkfilename : getden/=0, take file _DEN from output of DATASET   1.


 getdim_nloc: deduce lmnmax  =  18, lnmax  =   6,
                      lmnmaxso=  18, lnmaxso=   6.
 Exchange-correlation functional for the present dataset will be:
  GGA: Perdew-Burke-Ernzerhof functional - ixc=11
 Citation for XC functional:
  J.P.Perdew, K.Burke, M.Ernzerhof, PRL 77, 3865 (1996)

 Unit cell volume ucvol=  1.2125184E+02 bohr^3
 Angles (23,13,12)=  1.09471221E+02  1.09471221E+02  1.09471221E+02 degrees

 getcut: wavevector=  0.0000  0.0000  0.0000  ngfft=  30  30  30
         ecut(hartree)=     33.000   => boxcut(ratio)=   2.14814
 symatm: atom number 1 is reached starting at atom
   1  1  1  1  1  1  1  1  1  1  1  1  1  1  1  1  1  1  1  1  1  1  1  1
   1  1  1  1  1  1  1  1  1  1  1  1  1  1  1  1  1  1  1  1  1  1  1  1
 wfconv:    24 bands initialized randomly with npw=   531, for ikpt=     1
 wfconv:    24 bands initialized randomly with npw=  1061, for ikpt=     2
 wfconv:    24 bands initialized randomly with npw=  1061, for ikpt=     3
 wfconv:    24 bands initialized randomly with npw=  1061, for ikpt=     4
 wfconv:    24 bands initialized randomly with npw=  1061, for ikpt=     5
 wfconv:    24 bands initialized randomly with npw=  1065, for ikpt=     6
 wfconv:    24 bands initialized randomly with npw=  1072, for ikpt=     7
 wfconv:    24 bands initialized randomly with npw=  1072, for ikpt=     8
 wfconv:    24 bands initialized randomly with npw=  1080, for ikpt=     9
 wfconv:    24 bands initialized randomly with npw=  1080, for ikpt=    10
 wfconv:    24 bands initialized randomly with npw=  1080, for ikpt=    11
 wfconv:    24 bands initialized randomly with npw=  1092, for ikpt=    12
 wfconv:    24 bands initialized randomly with npw=  1092, for ikpt=    13
 wfconv:    24 bands initialized randomly with npw=  1092, for ikpt=    14
 wfconv:    24 bands initialized randomly with npw=  1092, for ikpt=    15
 wfconv:    24 bands initialized randomly with npw=  1092, for ikpt=    16
 wfconv:    24 bands initialized randomly with npw=  1096, for ikpt=    17
 wfconv:    24 bands initialized randomly with npw=  1088, for ikpt=    18
 wfconv:    24 bands initialized randomly with npw=  1088, for ikpt=    19
 wfconv:    24 bands initialized randomly with npw=  1088, for ikpt=    20
 wfconv:    24 bands initialized randomly with npw=  1080, for ikpt=    21
 wfconv:    24 bands initialized randomly with npw=  1084, for ikpt=    22
 wfconv:    24 bands initialized randomly with npw=  1084, for ikpt=    23
 wfconv:    24 bands initialized randomly with npw=  1084, for ikpt=    24
 wfconv:    24 bands initialized randomly with npw=  1076, for ikpt=    25
 wfconv:    24 bands initialized randomly with npw=  1076, for ikpt=    26
 wfconv:    24 bands initialized randomly with npw=  1076, for ikpt=    27
 wfconv:    24 bands initialized randomly with npw=  1076, for ikpt=    28
 wfconv:    24 bands initialized randomly with npw=  1076, for ikpt=    29
 wfconv:    24 bands initialized randomly with npw=  1076, for ikpt=    30
 wfconv:    24 bands initialized randomly with npw=  1076, for ikpt=    31
 wfconv:    24 bands initialized randomly with npw=  1076, for ikpt=    32
 wfconv:    24 bands initialized randomly with npw=  1084, for ikpt=    33
 wfconv:    24 bands initialized randomly with npw=  1084, for ikpt=    34
 wfconv:    24 bands initialized randomly with npw=  1084, for ikpt=    35
 wfconv:    24 bands initialized randomly with npw=  1092, for ikpt=    36
 wfconv:    24 bands initialized randomly with npw=  1096, for ikpt=    37
 wfconv:    24 bands initialized randomly with npw=  1096, for ikpt=    38
 wfconv:    24 bands initialized randomly with npw=  1088, for ikpt=    39
 wfconv:    24 bands initialized randomly with npw=  1084, for ikpt=    40
 wfconv:    24 bands initialized randomly with npw=  1084, for ikpt=    41
 wfconv:    24 bands initialized randomly with npw=  1084, for ikpt=    42
 wfconv:    24 bands initialized randomly with npw=  1084, for ikpt=    43
 wfconv:    24 bands initialized randomly with npw=  1092, for ikpt=    44
 wfconv:    24 bands initialized randomly with npw=  1092, for ikpt=    45
 wfconv:    24 bands initialized randomly with npw=  1092, for ikpt=    46
 wfconv:    24 bands initialized randomly with npw=  1092, for ikpt=    47
 wfconv:    24 bands initialized randomly with npw=  1100, for ikpt=    48
 wfconv:    24 bands initialized randomly with npw=  1100, for ikpt=    49
 wfconv:    24 bands initialized randomly with npw=  1100, for ikpt=    50
 About to read data(r) from: ./outdata/ebnd_DS1_DEN

================================================================================

          - hdr_check: checking restart file header for consistency -


          current calculation                           restart file
          -------------------                           ------------

  calculation expects a density             |  input file contains a density
. ABINIT  code version 10.2.7-d             |  ABINIT  code version 10.2.7-d
. date 20250819 bantot    11088 natom    1  |  date 20250819 bantot      208 natom    1
  nkpt     462 nsym 48 ngfft  30,  30,  30  |  nkpt      26 nsym 48 ngfft  30,  30,  30
  ntypat  1 ecut_eff  33.0000000            |  ntypat  1 ecut_eff  33.0000000
  usepaw  0                                 |  usepaw  0
  usewvl  0                                 |  usewvl  0
  rprimd:                                   |  rprimd:
    -3.1180000   3.1180000   3.1180000      |    -3.1180000   3.1180000   3.1180000
     3.1180000  -3.1180000   3.1180000      |     3.1180000  -3.1180000   3.1180000
     3.1180000   3.1180000  -3.1180000      |     3.1180000   3.1180000  -3.1180000
  symafm:                                   |  symafm:
    1  1  1  1  1  1  1  1  1  1  1  1      |    1  1  1  1  1  1  1  1  1  1  1  1
    1  1  1  1  1  1  1  1  1  1  1  1      |    1  1  1  1  1  1  1  1  1  1  1  1
    1  1  1  1  1  1  1  1  1  1  1  1      |    1  1  1  1  1  1  1  1  1  1  1  1
    1  1  1  1  1  1  1  1  1  1  1  1      |    1  1  1  1  1  1  1  1  1  1  1  1
  symrel:                                   |  symrel:
    1  0  0  0  1  0  0  0  1               |    1  0  0  0  1  0  0  0  1
   -1  0  0  0 -1  0  0  0 -1               |   -1  0  0  0 -1  0  0  0 -1
   -1 -1 -1  0  0  1  0  1  0               |   -1 -1 -1  0  0  1  0  1  0
    1  1  1  0  0 -1  0 -1  0               |    1  1  1  0  0 -1  0 -1  0
    0  1  0  1  0  0 -1 -1 -1               |    0  1  0  1  0  0 -1 -1 -1
    0 -1  0 -1  0  0  1  1  1               |    0 -1  0 -1  0  0  1  1  1
    0  0  1 -1 -1 -1  1  0  0               |    0  0  1 -1 -1 -1  1  0  0
    0  0 -1  1  1  1 -1  0  0               |    0  0 -1  1  1  1 -1  0  0
    0  1  0  1  0  0  0  0  1               |    0  1  0  1  0  0  0  0  1
    0 -1  0 -1  0  0  0  0 -1               |    0 -1  0 -1  0  0  0  0 -1
   -1 -1 -1  0  0  1  1  0  0               |   -1 -1 -1  0  0  1  1  0  0
    1  1  1  0  0 -1 -1  0  0               |    1  1  1  0  0 -1 -1  0  0
    1  0  0  0  1  0 -1 -1 -1               |    1  0  0  0  1  0 -1 -1 -1
   -1  0  0  0 -1  0  1  1  1               |   -1  0  0  0 -1  0  1  1  1
    0  0  1 -1 -1 -1  0  1  0               |    0  0  1 -1 -1 -1  0  1  0
    0  0 -1  1  1  1  0 -1  0               |    0  0 -1  1  1  1  0 -1  0
   -1 -1 -1  1  0  0  0  0  1               |   -1 -1 -1  1  0  0  0  0  1
    1  1  1 -1  0  0  0  0 -1               |    1  1  1 -1  0  0  0  0 -1
    0  1  0  0  0  1  1  0  0               |    0  1  0  0  0  1  1  0  0
    0 -1  0  0  0 -1 -1  0  0               |    0 -1  0  0  0 -1 -1  0  0
    1  0  0 -1 -1 -1  0  1  0               |    1  0  0 -1 -1 -1  0  1  0
   -1  0  0  1  1  1  0 -1  0               |   -1  0  0  1  1  1  0 -1  0
    0  0  1  0  1  0 -1 -1 -1               |    0  0  1  0  1  0 -1 -1 -1
    0  0 -1  0 -1  0  1  1  1               |    0  0 -1  0 -1  0  1  1  1
    1  0  0 -1 -1 -1  0  0  1               |    1  0  0 -1 -1 -1  0  0  1
   -1  0  0  1  1  1  0  0 -1               |   -1  0  0  1  1  1  0  0 -1
    0  1  0  0  0  1 -1 -1 -1               |    0  1  0  0  0  1 -1 -1 -1
    0 -1  0  0  0 -1  1  1  1               |    0 -1  0  0  0 -1  1  1  1
   -1 -1 -1  1  0  0  0  1  0               |   -1 -1 -1  1  0  0  0  1  0
    1  1  1 -1  0  0  0 -1  0               |    1  1  1 -1  0  0  0 -1  0
    0  0  1  0  1  0  1  0  0               |    0  0  1  0  1  0  1  0  0
    0  0 -1  0 -1  0 -1  0  0               |    0  0 -1  0 -1  0 -1  0  0
    0  1  0 -1 -1 -1  0  0  1               |    0  1  0 -1 -1 -1  0  0  1
    0 -1  0  1  1  1  0  0 -1               |    0 -1  0  1  1  1  0  0 -1
    1  0  0  0  0  1 -1 -1 -1               |    1  0  0  0  0  1 -1 -1 -1
   -1  0  0  0  0 -1  1  1  1               |   -1  0  0  0  0 -1  1  1  1
   -1 -1 -1  0  1  0  1  0  0               |   -1 -1 -1  0  1  0  1  0  0
    1  1  1  0 -1  0 -1  0  0               |    1  1  1  0 -1  0 -1  0  0
    0  0  1  1  0  0  0  1  0               |    0  0  1  1  0  0  0  1  0
    0  0 -1 -1  0  0  0 -1  0               |    0  0 -1 -1  0  0  0 -1  0
   -1 -1 -1  0  1  0  0  0  1               |   -1 -1 -1  0  1  0  0  0  1
    1  1  1  0 -1  0  0  0 -1               |    1  1  1  0 -1  0  0  0 -1
    1  0  0  0  0  1  0  1  0               |    1  0  0  0  0  1  0  1  0
   -1  0  0  0  0 -1  0 -1  0               |   -1  0  0  0  0 -1  0 -1  0
    0  1  0 -1 -1 -1  1  0  0               |    0  1  0 -1 -1 -1  1  0  0
    0 -1  0  1  1  1 -1  0  0               |    0 -1  0  1  1  1 -1  0  0
    0  0  1  1  0  0 -1 -1 -1               |    0  0  1  1  0  0 -1 -1 -1
    0  0 -1 -1  0  0  1  1  1               |    0  0 -1 -1  0  0  1  1  1
  typat:                                    |  typat:
    1                                       |    1
  so_psp  :                                 |  so_psp  :
    1                                       |    1

--- !COMMENT
src_file: m_hdr.F90
src_line: 4203
message: |
    input kptrlatt = 0 0 0 0 0 0 0 0 0  /= disk file kptrlatt = 8 0 0 0 8 0 0 0 8
...


--- !COMMENT
src_file: m_hdr.F90
src_line: 4206
message: |
    input kptopt = -7  /= disk file kptopt = 1
...


--- !WARNING
src_file: m_hdr.F90
src_line: 4227
message: |
    input ival=0 not equal disk file ival=6
...

  tnons:                                    |  tnons:
     0.0000000   0.0000000   0.0000000      |     0.0000000   0.0000000   0.0000000
     0.0000000   0.0000000   0.0000000      |     0.0000000   0.0000000   0.0000000
     0.0000000   0.0000000   0.0000000      |     0.0000000   0.0000000   0.0000000
     0.0000000   0.0000000   0.0000000      |     0.0000000   0.0000000   0.0000000
     0.0000000   0.0000000   0.0000000      |     0.0000000   0.0000000   0.0000000
     0.0000000   0.0000000   0.0000000      |     0.0000000   0.0000000   0.0000000
     0.0000000   0.0000000   0.0000000      |     0.0000000   0.0000000   0.0000000
     0.0000000   0.0000000   0.0000000      |     0.0000000   0.0000000   0.0000000
     0.0000000   0.0000000   0.0000000      |     0.0000000   0.0000000   0.0000000
     0.0000000   0.0000000   0.0000000      |     0.0000000   0.0000000   0.0000000
     0.0000000   0.0000000   0.0000000      |     0.0000000   0.0000000   0.0000000
     0.0000000   0.0000000   0.0000000      |     0.0000000   0.0000000   0.0000000
     0.0000000   0.0000000   0.0000000      |     0.0000000   0.0000000   0.0000000
     0.0000000   0.0000000   0.0000000      |     0.0000000   0.0000000   0.0000000
     0.0000000   0.0000000   0.0000000      |     0.0000000   0.0000000   0.0000000
     0.0000000   0.0000000   0.0000000      |     0.0000000   0.0000000   0.0000000
     0.0000000   0.0000000   0.0000000      |     0.0000000   0.0000000   0.0000000
     0.0000000   0.0000000   0.0000000      |     0.0000000   0.0000000   0.0000000
     0.0000000   0.0000000   0.0000000      |     0.0000000   0.0000000   0.0000000
     0.0000000   0.0000000   0.0000000      |     0.0000000   0.0000000   0.0000000
     0.0000000   0.0000000   0.0000000      |     0.0000000   0.0000000   0.0000000
     0.0000000   0.0000000   0.0000000      |     0.0000000   0.0000000   0.0000000
     0.0000000   0.0000000   0.0000000      |     0.0000000   0.0000000   0.0000000
     0.0000000   0.0000000   0.0000000      |     0.0000000   0.0000000   0.0000000
     0.0000000   0.0000000   0.0000000      |     0.0000000   0.0000000   0.0000000
     0.0000000   0.0000000   0.0000000      |     0.0000000   0.0000000   0.0000000
     0.0000000   0.0000000   0.0000000      |     0.0000000   0.0000000   0.0000000
     0.0000000   0.0000000   0.0000000      |     0.0000000   0.0000000   0.0000000
     0.0000000   0.0000000   0.0000000      |     0.0000000   0.0000000   0.0000000
     0.0000000   0.0000000   0.0000000      |     0.0000000   0.0000000   0.0000000
     0.0000000   0.0000000   0.0000000      |     0.0000000   0.0000000   0.0000000
     0.0000000   0.0000000   0.0000000      |     0.0000000   0.0000000   0.0000000
     0.0000000   0.0000000   0.0000000      |     0.0000000   0.0000000   0.0000000
     0.0000000   0.0000000   0.0000000      |     0.0000000   0.0000000   0.0000000
     0.0000000   0.0000000   0.0000000      |     0.0000000   0.0000000   0.0000000
     0.0000000   0.0000000   0.0000000      |     0.0000000   0.0000000   0.0000000
     0.0000000   0.0000000   0.0000000      |     0.0000000   0.0000000   0.0000000
     0.0000000   0.0000000   0.0000000      |     0.0000000   0.0000000   0.0000000
     0.0000000   0.0000000   0.0000000      |     0.0000000   0.0000000   0.0000000
     0.0000000   0.0000000   0.0000000      |     0.0000000   0.0000000   0.0000000
     0.0000000   0.0000000   0.0000000      |     0.0000000   0.0000000   0.0000000
     0.0000000   0.0000000   0.0000000      |     0.0000000   0.0000000   0.0000000
     0.0000000   0.0000000   0.0000000      |     0.0000000   0.0000000   0.0000000
     0.0000000   0.0000000   0.0000000      |     0.0000000   0.0000000   0.0000000
     0.0000000   0.0000000   0.0000000      |     0.0000000   0.0000000   0.0000000
     0.0000000   0.0000000   0.0000000      |     0.0000000   0.0000000   0.0000000
     0.0000000   0.0000000   0.0000000      |     0.0000000   0.0000000   0.0000000
     0.0000000   0.0000000   0.0000000      |     0.0000000   0.0000000   0.0000000
   znucl:                                   |   znucl:
   41.00                                    |       41.00
  pseudopotential atom type  1:             |  pseudopotential atom type  1:
  pspso   0 pspxc  11                       |  pspso   0 pspxc  11
  pspdat   170510 pspcod    8 zion  13.0    |  pspdat   170510 pspcod    8 zion  13.0
  xred:                                     |  xred:
     0.0000000   0.0000000   0.0000000      |     0.0000000   0.0000000   0.0000000
 hdr_check:  Density/Potential file is OK for restart of calculation
================================================================================
 read_rhor , wall:  0.01 [s] , cpu:  0.00 [s] <<< TIME

================================================================================

 getcut: wavevector=  0.0000  0.0000  0.0000  ngfft=  30  30  30
         ecut(hartree)=     33.000   => boxcut(ratio)=   2.14814
 Max number of non-self-consistent loops: 80
 cgwf: tolwfr_diago=    1.000000E-12
 k-point: [ 1 / 462 ], spin: 1
   Max resid = 2.04452E+00  (exclude nbdbuf bands). One NSCF iteration cpu-time:  0.65 [s] , wall-time:  1.18 [s]
   Max resid = 5.61187E-02  (exclude nbdbuf bands). One NSCF iteration cpu-time:  0.58 [s] , wall-time:  1.14 [s]
   Max resid = 2.95575E-04  (exclude nbdbuf bands). One NSCF iteration cpu-time:  0.61 [s] , wall-time:  1.15 [s]
   Printing residuals every mod(20) iterations...
   NSCF loop completed after 8 iterations
 k-point: [ 100 / 462 ], spin: 1
   Max resid = 2.17384E+00  (exclude nbdbuf bands). One NSCF iteration cpu-time:  0.74 [s] , wall-time:  0.52 [s]
   Max resid = 3.80265E-02  (exclude nbdbuf bands). One NSCF iteration cpu-time:  0.42 [s] , wall-time:  0.48 [s]
   Max resid = 7.83448E-04  (exclude nbdbuf bands). One NSCF iteration cpu-time:  0.79 [s] , wall-time:  0.64 [s]
   Printing residuals every mod(20) iterations...
   NSCF loop completed after 10 iterations
 
 -------------------------------------------------------------------------------------------------
 Ekinetic   = :     0.000000E+00 Ha ,    0.000000E+00 eV
 Evext_l    = :     0.000000E+00 Ha ,    0.000000E+00 eV
 Evext_nl   = :     0.000000E+00 Ha ,    0.000000E+00 eV
 Epsp_core  = :     1.683816E+00 Ha ,    4.581896E+01 eV
 Ehartree   = :     0.000000E+00 Ha ,    0.000000E+00 eV
 Exc_ks     = :    -1.307188E+01 Ha ,   -3.557039E+02 eV
 Enn        = :    -4.931290E+01 Ha ,   -1.341872E+03 eV
 -------------------------------------------------------------------------------------------------
 Etot       = :    -6.070096E+01 Ha ,   -1.651757E+03 eV
 -------------------------------------------------------------------------------------------------

 fftdatar_write: About to write data to: ./outdata/ebnd_DS2_DEN with iomode: IO_MODE_FORTRAN
 IO operation , wall:  0.00 [s] , cpu:  0.00 [s] <<< TIME
 Integrated electronic density in atomic spheres:
 ------------------------------------------------
 Atom  Sphere_radius  Integrated_density
    1        2.00000          9.43828737
- Creating HDf5 file without MPI-IO support: ./outdata/ebnd_DS2_GSR.nc
================================================================================

 ----iterations are completed or convergence reached----

 Mean square residual over all n,k,spin=   43.771E-14; max=  99.971E-14
   0.0000  0.0000  0.0000    1  1.59795E-08 kpt; spin; max resid(k); each band:
  1.55E-13 1.92E-13 3.70E-13 1.34E-13 1.60E-13 1.62E-13 4.38E-13 8.19E-13
  3.51E-13 8.82E-13 3.85E-13 1.46E-13 3.96E-13 1.63E-13 1.40E-13 8.45E-13
  6.45E-13 5.20E-13 8.05E-13 6.37E-13 9.69E-13 7.87E-13 5.18E-11 1.60E-08
  -0.0063  0.0063  0.0063    1  3.77064E-07 kpt; spin; max resid(k); each band:
  4.23E-13 2.26E-13 1.84E-13 5.06E-13 7.06E-13 5.35E-13 3.82E-13 5.55E-13
  1.11E-13 2.32E-13 3.12E-13 1.74E-13 3.86E-13 9.08E-13 6.43E-13 6.24E-13
  4.30E-13 5.37E-13 1.00E-12 3.22E-13 5.29E-13 4.44E-13 3.77E-07 4.88E-11
  -0.0125  0.0125  0.0125    1  3.83067E-06 kpt; spin; max resid(k); each band:
  4.01E-13 2.31E-13 1.57E-13 5.20E-13 7.19E-13 6.98E-13 3.80E-13 6.11E-13
  1.30E-13 2.23E-13 3.10E-13 2.31E-13 4.06E-13 6.72E-13 6.28E-13 6.32E-13
  3.62E-13 6.61E-13 7.40E-13 8.85E-13 5.01E-13 4.77E-13 3.83E-06 5.67E-12
  -0.0187  0.0187  0.0187    1  1.05292E-05 kpt; spin; max resid(k); each band:
  3.74E-13 2.28E-13 1.60E-13 4.95E-13 7.21E-13 9.39E-14 3.84E-13 7.63E-13
  8.52E-13 2.13E-13 3.03E-13 2.87E-13 4.00E-13 6.67E-13 3.37E-13 5.65E-13
  3.61E-13 7.84E-13 4.91E-13 8.51E-13 3.08E-13 4.83E-13 1.05E-05 4.51E-11
  -0.0250  0.0250  0.0250    1  1.05552E-05 kpt; spin; max resid(k); each band:
  3.43E-13 2.27E-13 1.66E-13 4.81E-13 6.78E-13 1.38E-13 3.29E-13 1.35E-13
  4.62E-13 9.23E-13 2.90E-13 3.42E-13 3.63E-13 7.79E-13 7.83E-13 4.23E-13
  3.26E-13 8.60E-13 3.55E-13 5.42E-13 7.07E-13 4.58E-13 1.06E-05 2.00E-11
  -0.0312  0.0312  0.0312    1  6.35008E-05 kpt; spin; max resid(k); each band:
  2.10E-13 3.41E-13 2.47E-13 1.52E-13 1.66E-13 3.44E-13 6.00E-13 1.99E-13
  2.19E-13 8.75E-13 3.77E-13 1.27E-13 2.41E-13 3.38E-13 9.09E-13 8.27E-13
  5.02E-13 2.19E-13 4.00E-13 9.85E-13 1.48E-13 7.19E-13 6.35E-05 7.63E-09
  -0.0375  0.0375  0.0375    1  4.58285E-05 kpt; spin; max resid(k); each band:
  1.47E-13 7.99E-13 7.37E-13 9.14E-13 1.14E-13 3.70E-13 5.30E-13 7.73E-13
  3.21E-13 5.41E-14 7.82E-14 1.46E-13 2.33E-13 8.22E-13 1.85E-13 7.62E-13
  5.92E-13 4.41E-13 6.74E-13 4.74E-13 6.27E-13 7.93E-13 4.58E-05 3.33E-10
  -0.0437  0.0437  0.0437    1  2.06854E-05 kpt; spin; max resid(k); each band:
  1.42E-13 8.17E-13 6.91E-13 9.34E-13 1.15E-13 4.85E-13 5.65E-13 7.47E-13
  3.24E-13 3.69E-14 1.04E-13 1.56E-13 4.03E-13 6.36E-13 2.98E-13 4.77E-13
  3.68E-13 4.84E-13 9.20E-13 6.05E-13 5.47E-13 8.53E-13 2.07E-05 1.03E-09
  -0.0500  0.0500  0.0500    1  1.34179E-06 kpt; spin; max resid(k); each band:
  4.86E-13 4.06E-13 2.05E-13 5.38E-13 1.14E-13 2.54E-13 1.27E-13 2.17E-13
  8.74E-14 9.40E-14 5.25E-14 1.63E-13 2.14E-14 7.65E-13 4.50E-13 6.04E-13
  2.79E-13 1.67E-13 6.85E-13 2.47E-13 8.43E-13 4.26E-13 1.34E-06 1.04E-08
  -0.0563  0.0563  0.0563    1  2.90298E-07 kpt; spin; max resid(k); each band:
  5.69E-13 3.76E-13 2.12E-13 5.20E-13 1.06E-13 1.61E-13 1.28E-13 7.04E-13
  7.39E-13 5.43E-14 7.50E-14 4.17E-13 1.39E-13 5.95E-13 4.19E-13 4.70E-13
  9.14E-13 2.12E-13 3.63E-13 9.11E-13 8.29E-13 4.29E-13 2.90E-07 2.58E-08
  -0.0625  0.0625  0.0625    1  1.49548E-07 kpt; spin; max resid(k); each band:
  6.43E-13 3.51E-13 2.19E-13 5.07E-13 1.00E-13 1.89E-13 1.38E-13 9.06E-13
  5.21E-13 4.21E-14 2.55E-13 5.60E-13 3.14E-13 4.57E-13 3.87E-13 3.64E-13
  7.51E-13 2.71E-13 5.29E-13 5.99E-13 4.56E-13 3.46E-13 1.50E-07 5.65E-08
  -0.0688  0.0688  0.0688    1  3.15884E-08 kpt; spin; max resid(k); each band:
  3.11E-13 1.30E-13 2.02E-13 1.84E-13 8.69E-13 5.01E-13 4.13E-13 3.13E-13
  1.97E-13 2.03E-13 2.05E-13 5.69E-13 4.21E-13 1.39E-13 2.41E-13 7.02E-13
  3.55E-13 2.16E-13 5.29E-13 3.09E-13 5.45E-13 8.19E-13 3.16E-08 2.69E-09
  -0.0750  0.0750  0.0750    1  1.31860E-08 kpt; spin; max resid(k); each band:
  2.98E-13 1.38E-13 2.03E-13 1.95E-13 6.91E-13 4.62E-13 5.66E-13 2.84E-13
  3.10E-13 4.65E-14 7.69E-14 3.89E-13 3.51E-13 1.12E-13 1.82E-13 6.57E-13
  2.41E-13 2.41E-13 2.96E-13 8.06E-13 4.01E-13 5.89E-13 1.32E-08 4.41E-09
  -0.0813  0.0813  0.0813    1  2.36575E-08 kpt; spin; max resid(k); each band:
  2.91E-13 1.44E-13 2.07E-13 2.08E-13 6.46E-13 4.54E-13 5.60E-13 2.85E-13
  3.01E-13 3.00E-14 1.40E-13 3.02E-13 2.78E-13 8.54E-14 1.47E-13 3.42E-13
  5.63E-13 2.58E-13 9.87E-13 3.03E-13 2.82E-13 7.39E-13 2.37E-08 1.61E-08
  -0.0875  0.0875  0.0875    1  4.52497E-08 kpt; spin; max resid(k); each band:
  2.93E-13 1.47E-13 2.10E-13 2.19E-13 6.05E-13 2.04E-13 7.93E-13 2.96E-13
  2.96E-13 8.54E-13 1.97E-13 3.19E-13 3.08E-13 9.93E-13 9.53E-13 4.29E-13
  7.13E-13 2.68E-13 5.59E-13 6.26E-13 1.43E-13 4.01E-13 1.01E-08 4.52E-08
  -0.0938  0.0938  0.0938    1  1.33135E-07 kpt; spin; max resid(k); each band:
  3.01E-13 1.46E-13 2.13E-13 2.29E-13 5.60E-13 2.02E-13 7.41E-13 3.20E-13
  2.85E-13 7.82E-13 2.11E-13 5.40E-13 4.03E-13 7.86E-13 3.75E-13 4.86E-13
  7.16E-13 2.65E-13 3.25E-13 2.62E-13 5.92E-13 8.91E-13 4.56E-09 1.33E-07
  -0.1000  0.1000  0.1000    1  7.11832E-07 kpt; spin; max resid(k); each band:
  2.80E-13 5.27E-13 2.68E-13 1.49E-13 6.62E-13 8.08E-13 6.85E-14 4.95E-13
  2.79E-13 1.83E-13 7.78E-13 4.18E-13 7.42E-13 1.80E-13 4.61E-13 4.38E-13
  8.35E-13 3.52E-13 3.04E-13 5.62E-13 2.79E-13 3.19E-13 8.04E-08 7.12E-07
  -0.1062  0.1062  0.1062    1  6.96564E-06 kpt; spin; max resid(k); each band:
  3.01E-13 4.00E-13 5.26E-13 5.84E-13 5.28E-13 3.73E-13 4.70E-13 5.60E-13
  1.19E-13 2.80E-13 7.85E-13 1.85E-13 3.93E-13 9.36E-14 2.07E-13 5.85E-13
  3.34E-13 3.72E-13 2.10E-13 2.00E-13 3.19E-13 6.86E-13 1.17E-07 6.97E-06
  -0.1125  0.1125  0.1125    1  4.55049E-05 kpt; spin; max resid(k); each band:
  2.72E-13 3.86E-13 5.20E-13 6.21E-13 4.40E-13 3.27E-13 4.23E-13 4.88E-13
  1.65E-13 2.53E-13 4.87E-13 2.43E-13 2.13E-13 9.05E-13 8.41E-13 4.52E-13
  1.80E-13 3.10E-13 3.10E-13 3.00E-13 2.95E-13 9.51E-13 1.07E-06 4.55E-05
  -0.1187  0.1187  0.1187    1  7.34535E-05 kpt; spin; max resid(k); each band:
  2.42E-13 3.78E-13 5.46E-13 6.59E-13 3.69E-13 2.90E-13 4.04E-13 4.36E-13
  2.36E-13 2.64E-13 3.92E-13 8.31E-13 5.62E-13 7.19E-13 7.49E-13 4.06E-13
  1.71E-13 3.15E-13 2.30E-13 9.90E-13 6.31E-13 6.93E-13 1.08E-06 7.35E-05
  -0.1250  0.1250  0.1250    1  3.34785E-04 kpt; spin; max resid(k); each band:
  7.90E-13 5.67E-13 5.60E-13 3.83E-13 7.46E-13 5.97E-13 2.74E-13 2.09E-13
  9.45E-13 3.20E-13 1.76E-13 1.82E-13 1.26E-13 1.30E-13 2.27E-13 4.70E-13
  2.56E-13 6.64E-13 1.31E-13 2.13E-13 1.96E-13 4.02E-13 5.42E-07 3.35E-04
  -0.1313  0.1313  0.1313    1  3.03481E-05 kpt; spin; max resid(k); each band:
  7.50E-13 3.47E-13 3.23E-13 3.10E-13 4.52E-13 1.34E-13 2.45E-13 1.12E-13
  5.74E-13 4.64E-13 3.40E-13 4.94E-13 4.39E-13 6.87E-13 4.51E-13 3.84E-13
  7.00E-13 1.86E-13 6.83E-13 5.25E-13 4.40E-13 8.17E-13 2.49E-06 3.03E-05
  -0.1375  0.1375  0.1375    1  6.88539E-05 kpt; spin; max resid(k); each band:
  7.27E-13 3.99E-13 3.30E-13 3.08E-13 4.12E-13 1.64E-13 2.81E-13 1.38E-13
  6.29E-13 4.04E-13 4.07E-13 5.78E-13 5.91E-13 8.64E-13 4.40E-13 3.72E-13
  6.15E-13 5.89E-13 5.11E-13 6.74E-13 6.01E-13 9.05E-13 1.89E-05 6.89E-05
  -0.1437  0.1437  0.1437    1  1.00253E-04 kpt; spin; max resid(k); each band:
  6.99E-13 5.11E-13 2.02E-13 1.76E-13 4.14E-13 1.90E-13 2.74E-13 1.73E-13
  7.43E-13 3.21E-13 4.95E-13 5.84E-13 6.45E-13 8.35E-13 4.02E-13 3.36E-13
  6.05E-13 4.19E-13 7.43E-13 3.95E-13 6.54E-13 5.03E-13 3.39E-05 1.00E-04
  -0.1500  0.1500  0.1500    1  1.38193E-04 kpt; spin; max resid(k); each band:
  2.06E-13 2.81E-13 1.53E-13 1.27E-13 8.38E-14 3.61E-13 2.28E-13 1.68E-13
  2.03E-13 4.36E-13 4.69E-13 5.23E-13 4.54E-13 5.28E-13 4.31E-13 4.25E-13
  8.74E-13 4.43E-13 2.85E-13 4.65E-13 2.45E-13 9.54E-13 1.38E-04 7.60E-05
  -0.1562  0.1562  0.1562    1  1.77119E-04 kpt; spin; max resid(k); each band:
  1.94E-13 2.51E-13 8.29E-13 2.56E-13 2.45E-13 3.06E-13 2.25E-13 9.13E-13
  1.79E-13 4.23E-13 6.61E-13 3.00E-13 5.23E-13 3.07E-13 2.99E-13 3.92E-13
  9.86E-13 3.41E-13 9.46E-13 2.46E-13 9.28E-13 5.69E-13 1.77E-04 2.38E-05
  -0.1625  0.1625  0.1625    1  1.93625E-04 kpt; spin; max resid(k); each band:
  1.86E-13 2.21E-13 7.58E-13 2.25E-13 2.45E-13 2.26E-13 2.81E-13 6.77E-13
  1.90E-13 1.79E-13 5.32E-13 3.03E-13 5.06E-13 2.18E-13 2.06E-13 3.06E-13
  9.76E-13 2.75E-13 8.42E-13 6.42E-13 7.26E-13 3.22E-13 1.94E-04 1.93E-05
  -0.1688  0.1688  0.1688    1  1.85124E-04 kpt; spin; max resid(k); each band:
  1.85E-13 2.02E-13 7.19E-13 2.09E-13 2.39E-13 1.89E-13 4.11E-13 5.52E-13
  1.89E-13 4.13E-13 9.71E-13 4.92E-13 4.92E-13 1.99E-13 1.53E-13 2.57E-13
  9.37E-13 2.23E-13 9.51E-13 2.93E-13 7.14E-13 7.77E-13 1.85E-04 1.39E-04
  -0.1750  0.1750  0.1750    1  4.66463E-04 kpt; spin; max resid(k); each band:
  1.87E-13 1.91E-13 7.03E-13 2.02E-13 2.27E-13 1.44E-13 5.21E-13 4.80E-13
  1.96E-13 4.40E-13 6.42E-13 4.11E-13 5.18E-13 2.14E-13 1.22E-13 2.21E-13
  9.16E-13 1.76E-13 4.09E-13 2.64E-13 7.75E-13 8.31E-13 1.70E-04 4.66E-04
  -0.1812  0.1812  0.1812    1  9.15163E-04 kpt; spin; max resid(k); each band:
  1.90E-13 1.84E-13 6.98E-13 1.99E-13 2.20E-13 1.03E-13 2.19E-13 1.62E-13
  1.41E-13 4.55E-13 6.87E-13 3.29E-13 5.13E-13 2.59E-13 8.89E-13 1.88E-13
  9.90E-13 8.14E-13 4.61E-13 2.20E-13 8.45E-13 4.93E-13 1.49E-04 9.15E-04
  -0.1875  0.1875  0.1875    1  1.12685E-03 kpt; spin; max resid(k); each band:
  1.90E-13 1.80E-13 6.99E-13 1.99E-13 2.16E-13 8.65E-13 1.54E-13 1.40E-13
  1.78E-13 4.74E-13 7.91E-13 3.11E-13 7.89E-13 3.72E-13 7.68E-13 8.52E-13
  1.72E-13 6.30E-13 9.07E-13 9.19E-13 9.29E-13 2.97E-13 1.27E-04 1.13E-03
  -0.1938  0.1938  0.1938    1  1.02174E-03 kpt; spin; max resid(k); each band:
  1.90E-13 1.78E-13 7.03E-13 2.00E-13 2.18E-13 1.94E-13 1.87E-13 2.32E-13
  2.07E-13 4.81E-13 8.23E-13 3.66E-13 1.55E-13 3.09E-13 6.72E-13 6.93E-13
  5.51E-13 1.98E-13 8.97E-13 1.38E-13 1.72E-13 1.85E-13 1.11E-04 1.02E-03
  -0.2000  0.2000  0.2000    1  4.53323E-04 kpt; spin; max resid(k); each band:
  2.68E-13 9.04E-13 3.98E-13 2.96E-13 3.92E-13 2.40E-13 2.55E-13 1.58E-13
  4.01E-13 2.90E-13 5.25E-13 1.00E-13 7.81E-13 5.43E-13 2.86E-13 3.34E-13
  8.02E-13 2.46E-13 3.65E-13 7.74E-13 8.76E-13 9.52E-13 2.80E-04 4.53E-04
  -0.2062  0.2062  0.2062    1  4.36365E-04 kpt; spin; max resid(k); each band:
  2.86E-13 7.82E-13 4.74E-13 3.09E-13 4.85E-13 2.46E-13 2.32E-13 2.00E-13
  4.10E-13 2.77E-13 4.45E-13 1.85E-13 4.91E-13 1.42E-13 2.36E-13 2.54E-13
  4.93E-13 4.31E-13 9.29E-13 4.40E-13 6.79E-13 7.51E-13 3.52E-04 4.36E-04
  -0.2125  0.2125  0.2125    1  6.34092E-04 kpt; spin; max resid(k); each band:
  2.96E-13 7.98E-13 4.64E-13 3.23E-13 4.25E-13 9.41E-14 2.67E-13 2.10E-13
  4.00E-13 2.97E-13 4.33E-13 1.02E-13 5.50E-13 1.01E-13 3.92E-13 3.01E-13
  4.43E-13 3.72E-13 9.37E-13 4.81E-13 7.76E-13 6.54E-13 6.34E-04 4.69E-04
  -0.2188  0.2188  0.2188    1  4.87384E-04 kpt; spin; max resid(k); each band:
  3.69E-13 3.79E-13 5.14E-13 2.72E-13 1.08E-13 7.09E-13 3.66E-13 4.26E-13
  6.92E-13 7.76E-13 8.78E-13 1.44E-13 3.85E-13 3.62E-13 7.80E-13 3.70E-13
  9.83E-13 2.67E-13 4.70E-13 4.12E-13 4.42E-13 5.67E-13 2.22E-04 4.87E-04
  -0.2250  0.2250  0.2250    1  7.41597E-04 kpt; spin; max resid(k); each band:
  1.56E-13 5.58E-13 2.72E-13 1.63E-13 1.67E-13 1.38E-13 6.86E-13 3.60E-13
  5.34E-13 1.08E-13 6.85E-13 4.43E-13 5.74E-13 5.95E-13 2.12E-13 2.09E-13
  2.74E-13 2.15E-13 8.97E-13 6.20E-13 6.82E-13 3.41E-13 3.51E-04 7.42E-04
  -0.2313  0.2313  0.2313    1  1.33153E-03 kpt; spin; max resid(k); each band:
  1.65E-13 5.52E-13 2.75E-13 1.64E-13 1.79E-13 1.33E-13 8.57E-13 1.44E-13
  5.17E-13 1.13E-13 6.92E-13 1.75E-13 5.71E-13 6.90E-13 2.24E-13 2.22E-13
  2.27E-13 3.54E-13 3.93E-13 5.39E-13 8.29E-13 3.11E-13 2.38E-04 1.33E-03
  -0.2375  0.2375  0.2375    1  1.59148E-04 kpt; spin; max resid(k); each band:
  9.17E-13 3.00E-13 1.37E-13 2.34E-13 1.95E-13 9.54E-14 4.74E-13 3.40E-13
  5.82E-13 1.91E-13 5.02E-13 2.53E-13 6.46E-13 2.56E-13 4.12E-13 4.48E-13
  3.99E-13 5.07E-13 6.15E-13 2.44E-13 3.15E-13 7.30E-13 1.59E-04 3.65E-05
  -0.2437  0.2437  0.2437    1  3.45759E-03 kpt; spin; max resid(k); each band:
  3.74E-13 4.16E-13 8.22E-13 3.72E-13 5.20E-13 9.05E-13 1.27E-13 9.69E-14
  2.26E-13 2.69E-13 3.27E-13 5.80E-13 2.34E-13 4.16E-13 2.00E-13 7.39E-13
  3.16E-13 3.30E-13 3.42E-13 3.03E-13 6.84E-13 8.74E-13 4.03E-05 3.46E-03
  -0.2500  0.2500  0.2500    1  2.45715E-03 kpt; spin; max resid(k); each band:
  3.83E-13 4.00E-13 7.67E-13 3.95E-13 5.46E-13 9.36E-13 1.03E-13 7.45E-14
  9.60E-13 2.35E-13 3.67E-13 4.48E-13 4.61E-13 4.27E-13 3.43E-13 6.84E-13
  3.04E-13 3.77E-13 6.92E-13 3.56E-13 6.75E-13 9.70E-13 3.46E-05 2.46E-03
  -0.2562  0.2562  0.2562    1  1.81721E-03 kpt; spin; max resid(k); each band:
  3.90E-13 3.81E-13 7.06E-13 4.20E-13 4.07E-13 1.44E-13 1.63E-13 1.19E-13
  3.80E-13 4.17E-13 4.85E-13 2.86E-13 4.86E-13 4.45E-13 5.54E-13 6.90E-13
  2.61E-13 3.30E-13 3.95E-13 4.05E-13 9.27E-13 1.88E-13 2.69E-05 1.82E-03
  -0.2625  0.2625  0.2625    1  1.43828E-03 kpt; spin; max resid(k); each band:
  4.02E-13 3.86E-13 7.62E-13 8.07E-13 4.03E-13 1.41E-13 1.63E-13 1.21E-13
  5.26E-13 3.91E-13 6.81E-13 3.79E-13 5.49E-13 5.42E-13 6.79E-13 7.19E-13
  2.07E-13 9.39E-13 6.00E-13 9.14E-13 2.18E-13 2.31E-13 2.00E-05 1.44E-03
  -0.2687  0.2687  0.2687    1  6.02643E-05 kpt; spin; max resid(k); each band:
  8.56E-13 2.12E-13 2.15E-13 1.94E-13 2.83E-13 8.85E-13 1.87E-13 2.56E-13
  2.40E-13 6.65E-13 1.83E-13 3.59E-13 3.35E-13 2.33E-13 6.96E-13 6.58E-13
  3.57E-13 4.58E-13 9.26E-13 9.15E-13 6.99E-13 1.55E-13 1.46E-05 6.03E-05
  -0.2750  0.2750  0.2750    1  6.43819E-05 kpt; spin; max resid(k); each band:
  9.30E-13 2.09E-13 2.21E-13 1.90E-13 3.12E-13 8.24E-13 1.82E-13 2.48E-13
  2.54E-13 5.64E-13 2.87E-13 3.20E-13 3.65E-13 2.64E-13 7.53E-13 8.03E-13
  2.88E-13 3.72E-13 2.61E-13 2.78E-13 1.87E-13 3.40E-13 9.54E-06 6.44E-05
  -0.2812  0.2812  0.2812    1  6.79544E-05 kpt; spin; max resid(k); each band:
  1.53E-13 2.07E-13 2.29E-13 1.88E-13 3.39E-13 7.48E-13 1.79E-13 2.40E-13
  2.67E-13 5.24E-13 1.56E-13 3.06E-13 3.77E-13 3.01E-13 3.80E-13 2.77E-13
  2.21E-13 3.03E-13 5.96E-13 6.20E-13 2.15E-13 7.49E-13 6.58E-06 6.80E-05
  -0.2875  0.2875  0.2875    1  7.15814E-05 kpt; spin; max resid(k); each band:
  1.64E-13 2.06E-13 2.40E-13 1.88E-13 3.66E-13 6.68E-13 1.78E-13 2.38E-13
  2.75E-13 5.41E-13 1.79E-13 3.19E-13 3.81E-13 3.41E-13 4.56E-13 8.39E-13
  1.80E-13 2.47E-13 5.11E-13 5.33E-13 2.32E-13 2.85E-13 4.74E-06 7.16E-05
  -0.2938  0.2938  0.2938    1  6.68321E-04 kpt; spin; max resid(k); each band:
  3.22E-13 4.93E-13 2.46E-13 2.68E-13 3.14E-13 1.70E-13 4.82E-13 2.95E-13
  2.97E-13 3.64E-13 1.22E-13 2.56E-13 2.07E-13 1.17E-13 5.78E-13 2.29E-13
  8.32E-13 3.46E-13 6.13E-13 2.34E-13 7.47E-13 9.46E-13 1.14E-05 6.68E-04
  -0.3000  0.3000  0.3000    1  5.19922E-04 kpt; spin; max resid(k); each band:
  3.08E-13 5.03E-13 2.74E-13 2.50E-13 2.84E-13 1.85E-13 3.48E-13 4.50E-13
  7.46E-13 3.08E-13 7.48E-14 3.14E-13 2.02E-13 1.26E-13 5.80E-13 8.50E-13
  3.24E-13 2.71E-13 7.79E-13 3.60E-13 8.00E-13 2.56E-13 6.52E-06 5.20E-04
  -0.3063  0.3063  0.3063    1  3.50046E-04 kpt; spin; max resid(k); each band:
  2.95E-13 5.12E-13 3.07E-13 2.32E-13 2.86E-13 2.20E-13 2.70E-13 3.48E-13
  4.56E-13 3.06E-13 7.28E-14 2.18E-13 1.88E-13 1.39E-13 5.69E-13 1.66E-13
  2.55E-13 3.66E-13 2.92E-13 4.71E-13 8.87E-13 6.60E-13 4.29E-06 3.50E-04
 outresid : prtvol=0 or 1, do not print more k-points.


   outwf: writing wavefunctions to: ./outdata/ebnd_DS2_WFK with iomode: IO_MODE_FORTRAN_MASTER
 WFK output , wall:  0.25 [s] , cpu:  0.25 [s] <<< TIME
 prteigrs : about to open file ./outdata/ebnd_DS2_EIG
 Eigenvalues (   eV  ) for nkpt= 462  k points:
 kpt#   1, nband= 24, wtk=  1.00000, kpt=  0.0000  0.0000  0.0000 (reduced coord)
 -39.80125  -15.10610  -15.10610  -15.10610    8.59908   14.89674   14.89674   14.89674
  17.80890   17.80890   28.81924   28.81924   28.81924   39.60262   39.60262   42.61526
  42.61526   42.61526   48.68459   48.68459   48.68459   52.04507   57.12542   57.12542
 kpt#   2, nband= 24, wtk=  1.00000, kpt= -0.0062  0.0063  0.0063 (reduced coord)
 -39.80106  -15.10691  -15.10645  -15.10645    8.60236   14.89634   14.89634   14.89820
  17.80378   17.81059   28.82414   28.82489   28.82489   39.54742   39.60788   42.61248
  42.61248   42.66306   48.67257   48.67257   48.67774   52.05628   57.12176   57.14236
 kpt#   3, nband= 24, wtk=  1.00000, kpt= -0.0125  0.0125  0.0125 (reduced coord)
 -39.80050  -15.10932  -15.10749  -15.10749    8.61219   14.89514   14.89514   14.90259
  17.78846   17.81568   28.83880   28.84183   28.84183   39.39177   39.62369   42.60406
  42.60406   42.79645   48.63693   48.63693   48.65724   52.08976   57.10806   57.19279
 kpt#   4, nband= 24, wtk=  1.00000, kpt= -0.0187  0.0188  0.0188 (reduced coord)
 -39.79956  -15.11333  -15.10921  -15.10921    8.62855   14.89319   14.89319   14.90990
  17.76307   17.82413   28.86307   28.87001   28.87001   39.15824   39.65004   42.58982
  42.58982   42.99279   48.57895   48.57895   48.62325   52.14506   57.08146   57.27559
 kpt#   5, nband= 24, wtk=  1.00000, kpt= -0.0250  0.0250  0.0250 (reduced coord)
 -39.79826  -15.11891  -15.11162  -15.11162    8.65140   14.89052   14.89052   14.92013
  17.72780   17.83593   28.89674   28.90936   28.90936   38.86990   39.68695   42.56944
  42.56944   43.22886   48.50063   48.50063   48.57605   52.22132   57.04418   57.38899
 kpt#   6, nband= 24, wtk=  1.00000, kpt= -0.0312  0.0313  0.0313 (reduced coord)
 -39.79658  -15.12655  -15.11473  -15.11473    8.68067   14.88720   14.88720   14.93328
  17.68293   17.85094   28.93950   28.95978   28.95978   38.54448   39.73444   42.54249
  42.54249   43.48631   48.40450   48.40450   48.51599   52.31710   57.00821   57.53077
 kpt#   7, nband= 24, wtk=  1.00000, kpt= -0.0375  0.0375  0.0375 (reduced coord)
 -39.79453  -15.13592  -15.11865  -15.11865    8.71630   14.88328   14.88328   14.94933
  17.62879   17.86925   28.99099   29.02112   29.02112   38.19461   39.79249   42.50834
  42.50834   43.75276   48.29297   48.29297   48.44348   52.43033   56.95282   57.69827
 kpt#   8, nband= 24, wtk=  1.00000, kpt= -0.0437  0.0438  0.0438 (reduced coord)
 -39.79213  -15.14610  -15.12311  -15.12311    8.75819   14.87895   14.87895   14.96828
  17.56578   17.89081   29.05078   29.09324   29.09324   37.82834   39.86118   42.46651
  42.46651   44.02091   48.17054   48.17054   48.35910   52.55795   56.90073   57.88896
 kpt#   9, nband= 24, wtk=  1.00000, kpt= -0.0500  0.0500  0.0500 (reduced coord)
 -39.78936  -15.15810  -15.12856  -15.12856    8.80624   14.87424   14.87424   14.99010
  17.49434   17.91549   29.11838   29.17595   29.17595   37.45138   39.94049   42.41599
  42.41599   44.28430   48.03909   48.03909   48.26258   52.69547   56.85288   58.09974
 kpt#  10, nband= 24, wtk=  1.00000, kpt= -0.0562  0.0563  0.0563 (reduced coord)
 -39.78625  -15.17111  -15.13436  -15.13436    8.86032   14.86936   14.86936   15.01482
  17.41495   17.94322   29.19328   29.26902   29.26902   37.06795   40.03046   42.35628
  42.35628   44.53979   47.90340   47.90340   48.15611   52.83680   56.81531   58.32843
 kpt#  11, nband= 24, wtk=  1.00000, kpt= -0.0625  0.0625  0.0625 (reduced coord)
 -39.78279  -15.18544  -15.14081  -15.14081    8.92029   14.86443   14.86443   15.04241
  17.32810   17.97390   29.27491   29.37221   29.37221   36.68096   40.13110   42.28636
  42.28636   44.78473   47.76589   47.76589   48.03955   52.97381   56.79475   58.57218
 kpt#  12, nband= 24, wtk=  1.00000, kpt= -0.0687  0.0688  0.0688 (reduced coord)
 -39.77900  -15.20142  -15.14855  -15.14855    8.98601   14.85951   14.85951   15.07282
  17.23424   18.00740   29.36272   29.48525   29.48525   36.29248   40.24215   42.20519
  42.20519   45.01755   47.62896   47.62896   47.91282   53.09634   56.80076   58.82710
 kpt#  13, nband= 24, wtk=  1.00000, kpt= -0.0750  0.0750  0.0750 (reduced coord)
 -39.77487  -15.21821  -15.15630  -15.15630    9.05728   14.85492   14.85492   15.10609
  17.13405   18.04361   29.45613   29.60786   29.60786   35.90479   40.36415   42.11231
  42.11231   45.23777   47.49651   47.49651   47.77798   53.19309   56.84406   59.09358
 kpt#  14, nband= 24, wtk=  1.00000, kpt= -0.0812  0.0813  0.0813 (reduced coord)
 -39.77042  -15.23613  -15.16468  -15.16468    9.13394   14.85076   14.85076   15.14219
  17.02799   18.08239   29.55456   29.73968   29.73968   35.51919   40.49686   42.00682
  42.00682   45.44501   47.37040   47.37040   47.63497   53.25289   56.93482   59.36801
 kpt#  15, nband= 24, wtk=  1.00000, kpt= -0.0875  0.0875  0.0875 (reduced coord)
 -39.76567  -15.25510  -15.17368  -15.17368    9.21577   14.84719   14.84719   15.18108
  16.91657   18.12357   29.65746   29.88037   29.88037   35.13696   40.64024   41.88820
  41.88820   45.63945   47.25273   47.25273   47.48441   53.26724   57.08044   59.64816
 kpt#  16, nband= 24, wtk=  1.00000, kpt= -0.0937  0.0938  0.0938 (reduced coord)
 -39.76060  -15.27504  -15.18327  -15.18327    9.30256   14.84441   14.84441   15.22275
  16.80032   18.16698   29.76427   30.02953   30.02953   34.75925   40.79429   41.75614
  41.75614   45.82153   47.14525   47.14525   47.32690   53.23209   57.28362   59.93184
 kpt#  17, nband= 24, wtk=  1.00000, kpt= -0.1000  0.1000  0.1000 (reduced coord)
 -39.75525  -15.29638  -15.19348  -15.19348    9.39405   14.84259   14.84259   15.26717
  16.67973   18.21232   29.87448   30.18673   30.18673   34.38709   40.95897   41.61059
  41.61059   45.99140   47.04919   47.04919   47.16301   53.14733   57.54212   60.21675
 kpt#  18, nband= 24, wtk=  1.00000, kpt= -0.1062  0.1063  0.1063 (reduced coord)
 -39.74962  -15.31718  -15.20414  -15.20414    9.49008   14.84193   14.84193   15.31433
  16.55530   18.25968   29.98758   30.35155   30.35155   34.02167   41.13424   41.45215
  41.45215   46.15080   46.96575   46.96575   46.99329   53.01969   57.85050   60.50113
 kpt#  19, nband= 24, wtk=  1.00000, kpt= -0.1125  0.1125  0.1125 (reduced coord)
 -39.74371  -15.33957  -15.21547  -15.21547    9.59024   14.84257   14.84257   15.36418
  16.42748   18.30855   30.10310   30.52334   30.52334   33.66336   41.28069   41.28069
  41.32003   46.29980   46.81824   46.89527   46.89527   52.85239   58.19995   60.78342
 kpt#  20, nband= 24, wtk=  1.00000, kpt= -0.1187  0.1188  0.1188 (reduced coord)
 -39.73755  -15.36259  -15.22735  -15.22735    9.69429   14.84472   14.84472   15.41671
  16.29671   18.35876   30.22060   30.70158   30.70158   33.31331   41.09741   41.09741
  41.51628   46.43922   46.63836   46.83805   46.83805   52.65228   58.58244   61.05959
 kpt#  21, nband= 24, wtk=  1.00000, kpt= -0.1250  0.1250  0.1250 (reduced coord)
 -39.73114  -15.38553  -15.23955  -15.23955    9.80201   14.84856   14.84856   15.47189
  16.16343   18.41008   30.33977   30.88570   30.88570   32.97249   40.90399   40.90399
  41.72288   46.45409   46.56970   46.79408   46.79408   52.42531   58.98921   61.34288
 kpt#  22, nband= 24, wtk=  1.00000, kpt= -0.1312  0.1313  0.1313 (reduced coord)
 -39.72450  -15.40983  -15.25261  -15.25261    9.91291   14.85420   14.85420   15.52966
  16.02801   18.46217   30.46005   31.07474   31.07474   32.64136   40.70071   40.70071
  41.93972   46.26554   46.69162   46.76254   46.76254   52.17496   59.41093   61.57198
 kpt#  23, nband= 24, wtk=  1.00000, kpt= -0.1375  0.1375  0.1375 (reduced coord)
 -39.71764  -15.43424  -15.26604  -15.26604   10.02674   14.86189   14.86189   15.59002
  15.89085   18.51477   30.58120   31.26793   31.26793   32.32100   40.48973   40.48973
  42.16668   46.07373   46.74375   46.74375   46.80559   51.90609   59.83720   61.81238
 kpt#  24, nband= 24, wtk=  1.00000, kpt= -0.1437  0.1438  0.1438 (reduced coord)
 -39.71057  -15.45892  -15.27995  -15.27995   10.14312   14.87176   14.87176   15.65291
  15.75228   18.56756   30.70291   31.46427   31.46427   32.01216   40.27285   40.27285
  42.40360   45.87871   46.73674   46.73674   46.91162   51.62200   60.25332   62.03354
 kpt#  25, nband= 24, wtk=  1.00000, kpt= -0.1500  0.1500  0.1500 (reduced coord)
 -39.70331  -15.48336  -15.29401  -15.29401   10.26171   14.88398   14.88398   15.61267
  15.71830   18.62022   30.82509   31.66268   31.66268   31.71575   40.05266   40.05266
  42.65034   45.68084   46.74091   46.74091   47.00958   51.32607   60.64482   62.21479
 kpt#  26, nband= 24, wtk=  1.00000, kpt= -0.1562  0.1563  0.1563 (reduced coord)
 -39.69587  -15.50835  -15.30881  -15.30881   10.38198   14.89867   14.89867   15.47228
  15.78615   18.67244   30.94714   31.43240   31.86149   31.86149   39.83018   39.83018
  42.90667   45.48041   46.75542   46.75542   47.09895   51.02094   60.97859   62.35782
 kpt#  27, nband= 24, wtk=  1.00000, kpt= -0.1625  0.1625  0.1625 (reduced coord)
 -39.68826  -15.53336  -15.32403  -15.32403   10.50354   14.91599   14.91599   15.33143
  15.85640   18.72388   31.06902   31.16301   32.05910   32.05910   39.60849   39.60849
  43.17240   45.27772   46.77965   46.77965   47.17867   50.71005   61.22822   62.44911
 kpt#  28, nband= 24, wtk=  1.00000, kpt= -0.1687  0.1688  0.1688 (reduced coord)
 -39.68051  -15.55832  -15.33964  -15.33964   10.62592   14.93608   14.93608   15.19038
  15.92901   18.77424   30.90837   31.19053   32.25344   32.25344   39.39036   39.39036
  43.44733   45.07304   46.81290   46.81290   47.24685   50.39716   61.37469   62.47126
 kpt#  29, nband= 24, wtk=  1.00000, kpt= -0.1750  0.1750  0.1750 (reduced coord)
 -39.67261  -15.58313  -15.35562  -15.35562   10.74863   14.95906   14.95906   15.04939
  16.00392   18.82325   30.66929   31.31152   32.44198   32.44198   39.17897   39.17897
  43.73119   44.86663   46.85454   46.85454   47.30034   50.08699   61.42421   62.39992
 kpt#  30, nband= 24, wtk=  1.00000, kpt= -0.1812  0.1813  0.1813 (reduced coord)
 -39.66460  -15.60773  -15.37194  -15.37194   10.87115   14.90870   14.98506   14.98506
  16.08110   18.87063   30.44652   31.43185   32.62163   32.62163   38.97797   38.97797
  44.02373   44.65873   46.90394   46.90394   47.33408   49.78602   61.40074   62.24474
 kpt#  31, nband= 24, wtk=  1.00000, kpt= -0.1875  0.1875  0.1875 (reduced coord)
 -39.65648  -15.63205  -15.38858  -15.38858   10.99290   14.76853   15.01420   15.01420
  16.16047   18.91620   30.24080   31.55139   32.78871   32.78871   38.79157   38.79157
  44.32468   44.44956   46.96054   46.96054   47.34018   49.50336   61.33093   62.05670
 kpt#  32, nband= 24, wtk=  1.00000, kpt= -0.1937  0.1938  0.1938 (reduced coord)
 -39.64827  -15.65601  -15.40552  -15.40552   11.11330   14.62908   15.04658   15.04658
  16.24197   18.95980   30.05283   31.67003   32.93882   32.93882   38.62457   38.62457
  44.23932   44.63373   47.02381   47.02381   47.30729   49.25141   61.23452   61.85957
 kpt#  33, nband= 24, wtk=  1.00000, kpt= -0.2000  0.2000  0.2000 (reduced coord)
 -39.63999  -15.67975  -15.42316  -15.42316   11.23170   14.49053   15.08221   15.08221
  16.32549   19.00137   29.88315   31.78767   33.06697   33.06697   38.48228   38.48228
  44.02737   44.95051   47.09296   47.09296   47.22189   49.04457   61.12824   61.60481
 kpt#  34, nband= 24, wtk=  1.00000, kpt= -0.2062  0.2063  0.2063 (reduced coord)
 -39.63164  -15.70281  -15.44062  -15.44062   11.34749   14.35309   15.12136   15.12136
  16.41107   19.04095   29.73246   31.90427   33.16784   33.16784   38.37053   38.37053
  43.81562   45.27478   47.07370   47.16813   47.16813   48.89409   61.02131   61.39810
 kpt#  35, nband= 24, wtk=  1.00000, kpt= -0.2125  0.2125  0.2125 (reduced coord)
 -39.62324  -15.72533  -15.45830  -15.45830   11.45997   14.21690   15.16403   15.16403
  16.49858   19.07867   29.60115   32.01975   33.23614   33.23614   38.29479   38.29479
  43.60337   45.60611   46.86231   47.24862   47.24862   48.80103   60.91094   61.18331
 kpt#  36, nband= 24, wtk=  1.00000, kpt= -0.2187  0.2188  0.2188 (reduced coord)
 -39.61482  -15.74775  -15.47645  -15.47645   11.56838   14.08213   15.21020   15.21020
  16.58792   19.11476   29.48946   32.13402   33.26735   33.26735   38.25975   38.25975
  43.39036   45.94410   46.59768   47.33356   47.33356   48.75583   60.77275   60.95080
 kpt#  37, nband= 24, wtk=  1.00000, kpt= -0.2250  0.2250  0.2250 (reduced coord)
 -39.60637  -15.76949  -15.49453  -15.49453   11.67204   13.94892   15.26011   15.26011
  16.67906   19.14950   29.39780   32.24708   33.25865   33.25865   38.26851   38.26851
  43.17765   46.28838   46.29371   47.42341   47.42341   48.74506   60.69989   60.73638
 kpt#  38, nband= 24, wtk=  1.00000, kpt= -0.2312  0.2313  0.2313 (reduced coord)
 -39.59792  -15.79012  -15.51271  -15.51271   11.77023   13.81740   15.31377   15.31377
  16.77188   19.18367   29.32627   32.35885   33.20924   33.20924   38.32199   38.32199
  42.96498   45.96257   46.63848   47.51760   47.51760   48.75793   60.48049   60.65586
 kpt#  39, nband= 24, wtk=  1.00000, kpt= -0.2375  0.2375  0.2375 (reduced coord)
 -39.58948  -15.80983  -15.53058  -15.53058   11.86222   13.68773   15.37123   15.37123
  16.86633   19.21780   29.27484   32.46965   33.12098   33.12098   38.41905   38.41905
  42.75253   45.61303   46.99392   47.61569   47.61569   48.78555   60.23373   60.43696
 kpt#  40, nband= 24, wtk=  1.00000, kpt= -0.2437  0.2438  0.2438 (reduced coord)
 -39.58107  -15.82854  -15.54893  -15.54893   11.94732   13.55997   15.43253   15.43253
  16.96226   19.25257   29.24323   32.57876   32.99641   32.99641   38.55605   38.55605
  42.54040   45.25166   47.35413   47.71738   47.71738   48.82238   59.98047   60.59266
 kpt#  41, nband= 24, wtk=  1.00000, kpt= -0.2500  0.2500  0.2500 (reduced coord)
 -39.57269  -15.84691  -15.56736  -15.56736   12.02459   13.43426   15.49771   15.49771
  17.05959   19.28882   29.23122   32.68647   32.84004   32.84004   38.72895   38.72895
  42.32879   44.88117   47.71855   47.82234   47.82234   48.86464   59.73337   60.49095
 kpt#  42, nband= 24, wtk=  1.00000, kpt= -0.2562  0.2563  0.2563 (reduced coord)
 -39.56437  -15.86445  -15.58581  -15.58581   12.09350   13.31071   15.56682   15.56682
  17.15823   19.32749   29.23836   32.65672   32.65672   32.79274   38.93303   38.93303
  42.11786   44.50500   47.93030   47.93030   48.08656   48.90991   59.48618   60.38227
 kpt#  43, nband= 24, wtk=  1.00000, kpt= -0.2625  0.2625  0.2625 (reduced coord)
 -39.55611  -15.88115  -15.60426  -15.60426   12.15344   13.18940   15.63989   15.63989
  17.25805   19.36951   29.26412   32.45100   32.45100   32.89755   39.16373   39.16373
  41.90777   44.12511   48.04100   48.04100   48.45744   48.95646   59.23996   60.28930
 kpt#  44, nband= 24, wtk=  1.00000, kpt= -0.2687  0.2688  0.2688 (reduced coord)
 -39.54793  -15.89732  -15.62305  -15.62305   12.20386   13.07042   15.71682   15.71682
  17.35891   19.41580   29.30776   32.22698   32.22698   33.00080   39.41679   39.41679
  41.69825   43.74285   48.15389   48.15389   48.83031   49.00306   58.99513   60.03000
 kpt#  45, nband= 24, wtk=  1.00000, kpt= -0.2750  0.2750  0.2750 (reduced coord)
 -39.53984  -15.91230  -15.64140  -15.64140   12.24444   12.95388   15.79786   15.79786
  17.46075   19.46729   29.36870   31.98820   31.98820   33.10255   39.68884   39.68884
  41.49038   43.35954   48.26928   48.26928   49.04880   49.20452   58.75323   59.97272
 kpt#  46, nband= 24, wtk=  1.00000, kpt= -0.2812  0.2813  0.2813 (reduced coord)
 -39.53184  -15.92640  -15.65966  -15.65966   12.27485   12.83983   15.88291   15.88291
  17.56341   19.52480   29.44605   31.73760   31.73760   33.20272   39.97673   39.97673
  41.28388   42.97598   48.38663   48.38663   49.09294   49.57900   58.51435   59.92401
 kpt#  47, nband= 24, wtk=  1.00000, kpt= -0.2875  0.2875  0.2875 (reduced coord)
 -39.52397  -15.93962  -15.67780  -15.67780   12.29496   12.72836   15.97198   15.97198
  17.66675   19.58904   29.53892   31.47763   31.47763   33.30126   40.27790   40.27790
  41.07892   42.59291   48.50569   48.50569   49.13492   49.95265   58.27907   59.88400
 kpt#  48, nband= 24, wtk=  1.00000, kpt= -0.2937  0.2938  0.2938 (reduced coord)
 -39.51621  -15.95282  -15.69587  -15.69587   12.30471   12.61953   16.06502   16.06502
  17.77063   19.66025   29.64612   31.21025   31.21025   33.39812   40.59020   40.59020
  40.87568   42.21083   48.62600   48.62600   49.17373   50.32425   58.04804   59.95884
 kpt#  49, nband= 24, wtk=  1.00000, kpt= -0.3000  0.3000  0.3000 (reduced coord)
 -39.50859  -15.96431  -15.71367  -15.71367   12.30438   12.51341   16.16211   16.16211
  17.87490   19.73957   29.76722   30.93716   30.93716   33.49325   40.67439   40.91183
  40.91183   41.83059   48.74782   48.74782   49.21007   50.69247   57.82132   59.91845
 kpt#  50, nband= 24, wtk=  1.00000, kpt= -0.3062  0.3063  0.3063 (reduced coord)
 -39.50112  -15.97494  -15.73127  -15.73127   12.29421   12.41005   16.26319   16.26319
  17.97940   19.82696   29.90098   30.65968   30.65968   33.58659   40.47524   41.24123
  41.24123   41.45254   48.87070   48.87070   49.24305   51.05576   57.59958   59.88290
 kpt#  51, nband= 24, wtk=  1.00000, kpt= -0.3125  0.3125  0.3125 (reduced coord)
 -39.49379  -15.98494  -15.74878  -15.74878   12.27463   12.30952   16.36818   16.36818
  18.08396   19.92250   30.04634   30.37895   30.37895   33.67804   40.27843   41.07714
  41.57698   41.57698   48.99435   48.99435   49.27238   51.41227   57.38310   59.82509
 kpt#  52, nband= 24, wtk=  1.00000, kpt= -0.3187  0.3188  0.3188 (reduced coord)
 -39.48664  -15.99389  -15.76588  -15.76588   12.21186   12.24626   16.47717   16.47717
  18.18841   20.02624   30.09590   30.09590   30.20240   33.76764   40.08418   40.70491
  41.91796   41.91796   49.11882   49.11882   49.29783   51.76048   57.17227   59.80695
 kpt#  53, nband= 24, wtk=  1.00000, kpt= -0.3250  0.3250  0.3250 (reduced coord)
 -39.47965  -16.00192  -15.78224  -15.78224   12.11715   12.20972   16.59007   16.59007
  18.29266   20.13805   29.81177   29.81177   30.36818   33.85558   39.89273   40.33627
  42.26309   42.26309   49.24391   49.24391   49.31918   52.09824   56.96774   59.76004
 kpt#  54, nband= 24, wtk=  1.00000, kpt= -0.3312  0.3313  0.3313 (reduced coord)
 -39.47285  -16.00926  -15.79873  -15.79873   12.02539   12.16578   16.70682   16.70682
  18.39634   20.25751   29.52637   29.52637   30.54245   33.94118   39.70428   39.97164
  42.61114   42.61114   49.33628   49.36945   49.36945   52.42345   56.76882   59.68751
 kpt#  55, nband= 24, wtk=  1.00000, kpt= -0.3375  0.3375  0.3375 (reduced coord)
 -39.46624  -16.01677  -15.81518  -15.81518   11.93665   12.11518   16.82718   16.82718
  18.49933   20.38399   29.24073   29.24073   30.72388   34.02463   39.51886   39.61138
  42.96103   42.96103   49.34891   49.49499   49.49499   52.73382   56.57618   59.61574
 kpt#  56, nband= 24, wtk=  1.00000, kpt= -0.3437  0.3438  0.3438 (reduced coord)
 -39.45982  -16.02265  -15.83097  -15.83097   11.85097   12.05888   16.95144   16.95144
  18.60144   20.51760   28.95540   28.95540   30.91215   34.10594   39.25616   39.33718
  43.31209   43.31209   49.35716   49.62145   49.62145   53.02754   56.39000   59.54198
 kpt#  57, nband= 24, wtk=  1.00000, kpt= -0.3500  0.3500  0.3500 (reduced coord)
 -39.45361  -16.02782  -15.84636  -15.84636   11.76839   11.99768   17.07934   17.07934
  18.70246   20.65748   28.67084   28.67084   31.10580   34.18498   38.90638   39.15925
  43.66314   43.66314   49.36086   49.74848   49.74848   53.30253   56.21044   59.47143
 kpt#  58, nband= 24, wtk=  1.00000, kpt= -0.3562  0.3563  0.3563 (reduced coord)
 -39.44761  -16.03164  -15.86116  -15.86116   11.68894   11.93257   17.21081   17.21081
  18.80217   20.80312   28.38776   28.38776   31.30375   34.26173   38.56296   38.98537
  44.01318   44.01318   49.36043   49.87659   49.87659   53.55716   56.03768   59.39754
 kpt#  59, nband= 24, wtk=  1.00000, kpt= -0.3625  0.3625  0.3625 (reduced coord)
 -39.44183  -16.03555  -15.87568  -15.87568   11.61265   11.86412   17.34570   17.34570
  18.90031   20.95366   28.10600   28.10600   31.50480   34.33601   38.22569   38.81579
  44.36104   44.36104   49.35503   50.00537   50.00537   53.79012   55.87173   59.32497
 kpt#  60, nband= 24, wtk=  1.00000, kpt= -0.3687  0.3688  0.3688 (reduced coord)
 -39.43627  -16.03887  -15.88974  -15.88974   11.53956   11.79330   17.48390   17.48390
  18.99666   21.10846   27.82624   27.82624   31.70777   34.40780   37.89564   38.65079
  44.70559   44.70559   49.34513   50.13554   50.13554   54.00071   55.71275   59.24732
 kpt#  61, nband= 24, wtk=  1.00000, kpt= -0.3750  0.3750  0.3750 (reduced coord)
 -39.43093  -16.04074  -15.90326  -15.90326   11.46969   11.72108   17.62526   17.62526
  19.09097   21.26694   27.54892   27.54892   31.91152   34.47699   37.57432   38.49067
  45.04556   45.04556   49.33141   50.26784   50.26784   54.18878   55.56082   59.16154
 kpt#  62, nband= 24, wtk=  1.00000, kpt= -0.3812  0.3813  0.3813 (reduced coord)
 -39.42583  -16.04305  -15.91630  -15.91630   11.40307   11.64783   17.76959   17.76959
  19.18300   21.42800   27.27428   27.27428   32.11432   34.54351   37.26105   38.33573
  45.37953   45.37953   49.31288   50.40255   50.40255   54.35473   55.41602   59.06447
 kpt#  63, nband= 24, wtk=  1.00000, kpt= -0.3875  0.3875  0.3875 (reduced coord)
 -39.42097  -16.04489  -15.92880  -15.92880   11.33973   11.57445   17.91668   17.91668
  19.27248   21.59098   27.00277   27.00277   32.31480   34.60727   36.95765   38.18625
  45.70603   45.70603   49.29031   50.54071   50.54071   54.49951   55.27842   58.95361
 kpt#  64, nband= 24, wtk=  1.00000, kpt= -0.3937  0.3938  0.3938 (reduced coord)
 -39.41635  -16.04631  -15.94075  -15.94075   11.27969   11.50161   18.06629   18.06629
  19.35916   21.75500   26.73480   26.73480   32.51121   34.66819   36.66539   38.04255
  46.02342   46.02342   49.26396   50.68329   50.68329   54.62447   55.14807   58.82684
 kpt#  65, nband= 24, wtk=  1.00000, kpt= -0.4000  0.4000  0.4000 (reduced coord)
 -39.41198  -16.04736  -15.95212  -15.95212   11.22298   11.42991   18.21810   18.21810
  19.44278   21.91916   26.47080   26.47080   32.70152   34.72617   36.38584   37.90492
  46.32995   46.32995   49.23415   50.83144   50.83144   54.73126   55.02501   58.68290
 kpt#  66, nband= 24, wtk=  1.00000, kpt= -0.4062  0.4063  0.4063 (reduced coord)
 -39.40785  -16.04807  -15.96290  -15.96290   11.16960   11.35995   18.37177   18.37177
  19.52306   22.08251   26.21125   26.21125   32.88329   34.78114   36.12103   37.77367
  46.62378   46.62378   49.20125   50.98640   50.98640   54.82168   54.90930   58.52144
 kpt#  67, nband= 24, wtk=  1.00000, kpt= -0.4125  0.4125  0.4125 (reduced coord)
 -39.40398  -16.04850  -15.97306  -15.97306   11.11959   11.29222   18.52686   18.52686
  19.59973   22.24405   25.95670   25.95670   33.05346   34.83300   35.87361   37.64912
  46.90302   46.90302   49.16572   51.14949   51.14949   54.80095   54.89761   58.34286
 kpt#  68, nband= 24, wtk=  1.00000, kpt= -0.4187  0.4188  0.4188 (reduced coord)
 -39.40036  -16.04868  -15.98260  -15.98260   11.07295   11.22723   18.68285   18.68285
  19.67255   22.40272   25.70775   25.70775   33.20813   34.88170   35.64715   37.53155
  47.16583   47.16583   49.12804   51.32199   51.32199   54.70000   54.96085   58.14818
 kpt#  69, nband= 24, wtk=  1.00000, kpt= -0.4250  0.4250  0.4250 (reduced coord)
 -39.39701  -16.04866  -15.99149  -15.99149   11.02971   11.16540   18.83910   18.83910
  19.74123   22.55740   25.46513   25.46513   33.34222   34.92713   35.44646   37.42127
  47.41048   47.41048   49.08881   51.50503   51.50503   54.60647   55.01315   57.93878
 kpt#  70, nband= 24, wtk=  1.00000, kpt= -0.4312  0.4313  0.4313 (reduced coord)
 -39.39391  -16.04812  -15.99965  -15.99965   10.98988   11.10717   18.99484   18.99484
  19.80555   22.70703   25.22978   25.22978   33.44937   34.96923   35.27785   37.31858
  47.63552   47.63552   49.04888   51.69979   51.69979   54.52040   55.05608   57.71624
 kpt#  71, nband= 24, wtk=  1.00000, kpt= -0.4375  0.4375  0.4375 (reduced coord)
 -39.39107  -16.04781  -16.00721  -16.00721   10.95347   11.05283   19.14906   19.14906
  19.86522   22.85010   25.00259   25.00259   33.52247   35.00793   35.14789   37.22374
  47.83982   47.83982   49.00848   51.90614   51.90614   54.44176   55.09106   57.48218
 kpt#  72, nband= 24, wtk=  1.00000, kpt= -0.4437  0.4438  0.4438 (reduced coord)
 -39.38850  -16.04741  -16.01409  -16.01409   10.92049   11.00274   19.30057   19.30057
  19.92001   22.98545   24.78489   24.78489   33.55612   35.04317   35.06210   37.13703
  48.02268   48.02268   48.96860   52.12435   52.12435   54.37059   55.11934   57.23828
 kpt#  73, nband= 24, wtk=  1.00000, kpt= -0.4500  0.4500  0.4500 (reduced coord)
 -39.38620  -16.04696  -16.02125  -16.02125   10.89092   10.95716   19.44779   19.44779
  19.96953   23.11169   24.57774   24.57774   33.55024   35.02002   35.07389   37.05867
  48.18356   48.18356   48.92994   52.35373   52.35373   54.30612   55.14198   56.98593
 kpt#  74, nband= 24, wtk=  1.00000, kpt= -0.4562  0.4563  0.4563 (reduced coord)
 -39.38417  -16.04647  -16.02672  -16.02672   10.86484   10.91639   19.58899   19.58899
  20.01392   23.22748   24.38407   24.38407   33.51210   35.01551   35.10200   36.98895
  48.32325   48.32325   48.89345   52.59314   52.59314   54.24990   55.16001   56.72759
 kpt#  75, nband= 24, wtk=  1.00000, kpt= -0.4625  0.4625  0.4625 (reduced coord)
 -39.38240  -16.04599  -16.03147  -16.03147   10.84222   10.88062   19.72180   19.72180
  20.05281   23.33141   24.20574   24.20574   33.45361   35.03631   35.12647   36.92807
  48.44196   48.44196   48.85984   52.84055   52.84055   54.20118   55.17416   56.46501
 kpt#  76, nband= 24, wtk=  1.00000, kpt= -0.4687  0.4688  0.4688 (reduced coord)
 -39.38090  -16.04552  -16.03551  -16.03551   10.82307   10.85004   19.84341   19.84341
  20.08603   23.42214   24.04555   24.04555   33.38693   35.07046   35.14726   36.87620
  48.54042   48.54042   48.82988   53.09305   53.09305   54.15994   55.18509   56.20088
 kpt#  77, nband= 24, wtk=  1.00000, kpt= -0.4750  0.4750  0.4750 (reduced coord)
 -39.37968  -16.04510  -16.03881  -16.03881   10.80739   10.82481   19.95054   19.95054
  20.11342   23.49839   23.90683   23.90683   33.32182   35.10844   35.16432   36.83353
  48.61946   48.61946   48.80428   53.34627   53.34627   54.12620   55.19334   55.93912
 kpt#  78, nband= 24, wtk=  1.00000, kpt= -0.4812  0.4813  0.4813 (reduced coord)
 -39.37872  -16.04475  -16.04138  -16.04138   10.79519   10.80506   20.03954   20.03954
  20.13487   23.55902   23.79325   23.79325   33.26526   35.14353   35.17764   36.80019
  48.67992   48.67992   48.78367   53.59297   53.59297   54.09996   55.19933   55.68649
 kpt#  79, nband= 24, wtk=  1.00000, kpt= -0.4875  0.4875  0.4875 (reduced coord)
 -39.37804  -16.04447  -16.04321  -16.04321   10.78648   10.79089   20.10666   20.10666
  20.15026   23.60308   23.70858   23.70858   33.22196   35.17130   35.18717   36.77629
  48.72252   48.72252   48.76856   53.81919   53.81919   54.08122   55.20348   55.45645
 kpt#  80, nband= 24, wtk=  1.00000, kpt= -0.4937  0.4938  0.4938 (reduced coord)
 -39.37763  -16.04430  -16.04430  -16.04427   10.78125   10.78235   20.14851   20.14851
  20.15952   23.62983   23.65620   23.65620   33.19488   35.18897   35.19290   36.76191
  48.74782   48.74782   48.75936   53.99518   53.99518   54.06999   55.20632   55.27836
 kpt#  81, nband= 24, wtk=  1.00000, kpt= -0.5000  0.5000  0.5000 (reduced coord)
 -39.37749  -16.04616  -16.04616  -16.04616   10.77947   10.77947   20.16235   20.16235
  20.16235   23.63772   23.63772   23.63772   33.18564   35.19380   35.19380   36.75699
  48.75525   48.75525   48.75525   54.06535   54.06535   54.06535   55.20551   55.20551
 kpt#  82, nband= 24, wtk=  1.00000, kpt= -0.4916  0.4916  0.4972 (reduced coord)
 -39.37763  -16.04467  -16.04419  -16.04367   10.78143   10.78223   20.14583   20.14831
  20.16208   23.63417   23.65215   23.65642   33.19500   35.18967   35.19250   36.76195
  48.74301   48.74781   48.76405   53.99444   53.99450   54.07005   55.20590   55.28007
 kpt#  83, nband= 24, wtk=  1.00000, kpt= -0.4831  0.4831  0.4944 (reduced coord)
 -39.37805  -16.04531  -16.04271  -16.04189   10.78718   10.79039   20.09615   20.10585
  20.16041   23.62052   23.69195   23.70933   33.22265   35.17342   35.18526   36.77647
  48.70330   48.72259   48.78794   53.81692   53.81808   54.08069   55.19821   55.46228
 kpt#  84, nband= 24, wtk=  1.00000, kpt= -0.4747  0.4747  0.4916 (reduced coord)
 -39.37873  -16.04668  -16.04087  -16.03897   10.79674   10.80396   20.01651   20.03723
  20.15755   23.59789   23.75604   23.79397   33.26772   35.14708   35.17283   36.80063
  48.63747   48.68064   48.82719   53.58786   53.59259   54.09766   55.18727   55.69742
 kpt#  85, nband= 24, wtk=  1.00000, kpt= -0.4663  0.4663  0.4888 (reduced coord)
 -39.37969  -16.04856  -16.03828  -16.03486   10.81010   10.82290   19.91092   19.94534
  20.15355   23.56665   23.84170   23.90658   33.32855   35.11224   35.15571   36.83435
  48.54620   48.62238   48.88144   53.33638   53.34795   54.12022   55.17231   55.95570
 kpt#  86, nband= 24, wtk=  1.00000, kpt= -0.4579  0.4579  0.4860 (reduced coord)
 -39.38092  -16.05096  -16.03495  -16.02959   10.82723   10.84716   19.78377   19.83347
  20.14845   23.52718   23.94575   24.04277   33.40254   35.07116   35.13424   36.87756
  48.43039   48.54827   48.95000   53.07561   53.09773   54.14721   55.15303   56.22340
 kpt#  87, nband= 24, wtk=  1.00000, kpt= -0.4494  0.4494  0.4831 (reduced coord)
 -39.38242  -16.05385  -16.03089  -16.02317   10.84809   10.87666   19.63926   19.70493
  20.14226   23.47995   24.06501   24.19835   33.48563   35.02719   35.10920   36.93014
  48.29122   48.45882   49.03195   52.81202   52.84853   54.17723   55.12941   56.49361
 kpt#  88, nband= 24, wtk=  1.00000, kpt= -0.4410  0.4410  0.4803 (reduced coord)
 -39.38418  -16.05723  -16.02612  -16.01559   10.87262   10.91132   19.48109   19.56284
  20.13500   23.42549   24.19652   24.36961   33.57173   34.98482   35.08226   36.99194
  48.13011   48.35457   49.12619   52.54924   52.60394   54.20874   55.10141   56.76237
 kpt#  89, nband= 24, wtk=  1.00000, kpt= -0.4326  0.4326  0.4775 (reduced coord)
 -39.38621  -16.06106  -16.02063  -16.00689   10.90078   10.95102   19.31240   19.40996
  20.12670   23.36438   24.33767   24.55343   33.65187   34.94871   35.05781   37.06279
  47.94871   48.23609   49.23138   52.28964   52.36612   54.24009   55.06898   57.02711
 kpt#  90, nband= 24, wtk=  1.00000, kpt= -0.4242  0.4242  0.4747 (reduced coord)
 -39.38849  -16.06534  -16.01444  -15.99708   10.93248   10.99564   19.13574   19.24869
  20.11741   23.29719   24.48626   24.74726   33.71414   34.91917   35.04759   37.14249
  47.74888   48.10394   49.34588   52.03491   52.13650   54.26960   55.03208   57.28694
 kpt#  91, nband= 24, wtk=  1.00000, kpt= -0.4157  0.4157  0.4719 (reduced coord)
 -39.39101  -16.07004  -16.00757  -15.98619   10.96764   11.04504   18.95318   19.08110
  20.10714   23.22449   24.64040   24.94904   33.74593   34.88705   35.07353   37.23080
  47.53262   47.95867   49.46768   51.78640   51.91627   54.29565   54.99062   57.54166
 kpt#  92, nband= 24, wtk=  1.00000, kpt= -0.4073  0.4073  0.4691 (reduced coord)
 -39.39379  -16.07519  -16.00007  -15.97439   11.00616   11.09905   18.76637   18.90897
  20.09595   23.14679   24.79848   25.15706   33.73918   34.84476   35.15137   37.32745
  47.30196   47.80085   49.59407   51.54508   51.70669   54.31666   54.94453   57.76853
 kpt#  93, nband= 24, wtk=  1.00000, kpt= -0.3989  0.3989  0.4663 (reduced coord)
 -39.39680  -16.08065  -15.99189  -15.96140   11.04791   11.15751   18.57670   18.73383
  20.08386   23.06474   24.95928   25.37009   33.69413   34.79342   35.28023   37.43211
  47.05909   47.63110   49.72135   51.31203   51.51020   54.33145   54.89373   57.99724
 kpt#  94, nband= 24, wtk=  1.00000, kpt= -0.3904  0.3904  0.4635 (reduced coord)
 -39.40004  -16.08645  -15.98308  -15.94741   11.09275   11.22021   18.38522   18.55703
  20.07092   22.97877   25.12161   25.58701   33.61723   34.73538   35.45147   37.54443
  46.80602   47.45006   49.84364   51.08784   51.33073   54.33888   54.83812   58.21261
 kpt#  95, nband= 24, wtk=  1.00000, kpt= -0.3820  0.3820  0.4607 (reduced coord)
 -39.40351  -16.09257  -15.97370  -15.93265   11.14050   11.28695   18.19285   18.37979
  20.05716   22.88931   25.28435   25.80689   33.51637   34.67202   35.65600   37.66398
  46.54471   47.25847   49.95107   50.87302   51.17615   54.33800   54.77758   58.48188
 kpt#  96, nband= 24, wtk=  1.00000, kpt= -0.3736  0.3736  0.4579 (reduced coord)
 -39.40719  -16.09895  -15.96370  -15.91675   11.19097   11.35749   18.00032   18.20318
  20.04265   22.79678   25.44687   26.02909   33.39836   34.60446   35.88655   37.79031
  46.27710   47.05724   50.02706   50.66793   51.06109   54.32869   54.71206   58.60969
 kpt#  97, nband= 24, wtk=  1.00000, kpt= -0.3652  0.3652  0.4551 (reduced coord)
 -39.41109  -16.10556  -15.95313  -15.89994   11.24391   11.43160   17.80827   18.02825
  20.02742   22.70152   25.60823   26.25299   33.26818   34.53331   36.13778   37.92286
  46.00488   46.84732   50.04928   50.47270   51.00570   54.31068   54.64142   58.57085
 kpt#  98, nband= 24, wtk=  1.00000, kpt= -0.3567  0.3567  0.4522 (reduced coord)
 -39.41518  -16.11259  -15.94207  -15.88228   11.29903   11.50899   17.61721   17.85593
  20.01149   22.60378   25.76763   26.47803   33.12944   34.45918   36.40583   38.06099
  45.72962   46.62985   50.00465   50.28723   51.02054   54.28421   54.56556   58.35369
 kpt#  99, nband= 24, wtk=  1.00000, kpt= -0.3483  0.3483  0.4494 (reduced coord)
 -39.41946  -16.11958  -15.93045  -15.86379   11.35599   11.58945   17.42760   17.68720
  19.99493   22.50393   25.92440   26.70387   32.98488   34.38274   36.68791   38.20402
  45.45283   46.40610   49.90398   50.11162   51.09301   54.24983   54.48443   58.06030
 kpt# 100, nband= 24, wtk=  1.00000, kpt= -0.3399  0.3399  0.4466 (reduced coord)
 -39.42392  -16.12670  -15.91836  -15.84451   11.41437   11.67270   17.23984   17.52299
  19.97778   22.40212   26.07776   26.93012   32.83649   34.30468   36.98174   38.35110
  45.17576   46.17747   49.76848   49.94550   51.19917   54.20833   54.39795   57.76450
 kpt# 101, nband= 24, wtk=  1.00000, kpt= -0.3315  0.3315  0.4438 (reduced coord)
 -39.42855  -16.13392  -15.90581  -15.82451   11.47370   11.75848   17.05427   17.36421
  19.96007   22.29852   26.22697   27.15647   32.68585   34.22577   37.28545   38.50124
  44.89959   45.94553   49.61382   49.78852   51.32066   54.16074   54.30608   57.47459
 kpt# 102, nband= 24, wtk=  1.00000, kpt= -0.3230  0.3230  0.4410 (reduced coord)
 -39.43333  -16.14131  -15.89306  -15.80412   11.53339   11.84649   16.87118   17.21187
  19.94182   22.19320   26.37115   27.38240   32.53411   34.14684   37.59700   38.65329
  44.62536   45.71199   49.44841   49.64023   51.44588   54.10818   54.20879   57.19689
 kpt# 103, nband= 24, wtk=  1.00000, kpt= -0.3146  0.3146  0.4382 (reduced coord)
 -39.43827  -16.14869  -15.87968  -15.78260   11.59278   11.93656   16.69089   17.06694
  19.92308   22.08640   26.50981   27.60815   32.38249   34.06900   37.91549   38.80598
  44.35404   45.47880   49.27744   49.50025   51.56710   54.05205   54.10611   56.93621
 kpt# 104, nband= 24, wtk=  1.00000, kpt= -0.3062  0.3062  0.4354 (reduced coord)
 -39.44335  -16.15603  -15.86603  -15.76085   11.65109   12.02851   16.51359   16.93026
  19.90388   21.97813   26.64204   27.83322   32.23154   33.99329   38.23922   38.95750
  44.08638   45.24799   49.10310   49.36799   51.67839   53.99361   53.99797   56.69710
 kpt# 105, nband= 24, wtk=  1.00000, kpt= -0.2978  0.2978  0.4326 (reduced coord)
 -39.44855  -16.16320  -15.85194  -15.73830   11.70742   12.12219   16.33956   16.80298
  19.88424   21.86850   26.76712   28.05761   32.08193   33.92103   38.56674   39.10609
  43.82324   45.02204   48.92703   49.24329   51.77489   53.88446   53.93430   56.48416
 kpt# 106, nband= 24, wtk=  1.00000, kpt= -0.2893  0.2893  0.4298 (reduced coord)
 -39.45386  -16.17049  -15.83761  -15.71551   11.76076   12.21743   16.16897   16.68610
  19.86418   21.75744   26.88413   28.28103   31.93389   33.85340   38.89603   39.24928
  43.56526   44.80357   48.75029   49.12537   51.85184   53.76554   53.87538   56.30176
 kpt# 107, nband= 24, wtk=  1.00000, kpt= -0.2809  0.2809  0.4270 (reduced coord)
 -39.45928  -16.17746  -15.82303  -15.69224   11.81007   12.31426   16.00198   16.58058
  19.84372   21.64506   26.99264   28.50342   31.78772   33.79218   39.22560   39.38414
  43.31316   44.59573   48.57394   49.01393   51.90583   53.64125   53.81832   56.15447
 kpt# 108, nband= 24, wtk=  1.00000, kpt= -0.2725  0.2725  0.4242 (reduced coord)
 -39.46478  -16.18447  -15.80825  -15.66865   11.85420   12.41257   15.83881   16.48742
  19.82288   21.53133   27.09186   28.72460   31.64334   33.73874   39.50740   39.55293
  43.06766   44.40210   48.39904   48.90848   51.93382   53.51184   53.76437   56.04515
 kpt# 109, nband= 24, wtk=  1.00000, kpt= -0.2640  0.2640  0.4213 (reduced coord)
 -39.47036  -16.19106  -15.79327  -15.64474   11.89207   12.51247   15.67961   16.40752
  19.80166   21.41630   27.18132   28.94447   31.50072   33.69473   39.61516   39.87553
  42.82972   44.22672   48.22698   48.80863   51.93479   53.37785   53.71478   55.97586
 kpt# 110, nband= 24, wtk=  1.00000, kpt= -0.2556  0.2556  0.4185 (reduced coord)
 -39.47601  -16.19730  -15.77799  -15.62034   11.92266   12.61393   15.52459   16.34166
  19.78011   21.30002   27.26066   29.16294   31.35960   33.66167   39.70328   40.18982
  42.60058   44.07405   48.05949   48.71412   51.90902   53.24033   53.67078   55.94608
 kpt# 111, nband= 24, wtk=  1.00000, kpt= -0.2472  0.2472  0.4157 (reduced coord)
 -39.48171  -16.20335  -15.76277  -15.59603   11.94507   12.71699   15.37378   16.29034
  19.75815   21.18238   27.32966   29.37989   31.21953   33.64090   39.76677   40.49069
  42.38228   43.94857   47.89879   48.62424   51.85857   53.10029   53.63352   55.95340
 kpt# 112, nband= 24, wtk=  1.00000, kpt= -0.2388  0.2388  0.4129 (reduced coord)
 -39.48745  -16.20925  -15.74755  -15.57165   11.95863   12.82157   15.22738   16.25392
  19.73579   21.06351   27.38835   29.59516   31.08024   33.63338   39.80157   40.77024
  42.17924   43.85450   47.74780   48.53867   51.78679   52.95962   53.60413   55.99370
 kpt# 113, nband= 24, wtk=  1.00000, kpt= -0.2303  0.2303  0.4101 (reduced coord)
 -39.49321  -16.21464  -15.73209  -15.54710   11.96300   12.92776   15.08555   16.23237
  19.71306   20.94338   27.43704   29.80886   30.94134   33.64065   39.80464   41.01329
  42.00253   43.79504   47.61023   48.45735   51.69757   52.82025   53.58371   56.06248
 kpt# 114, nband= 24, wtk=  1.00000, kpt= -0.2219  0.2219  0.4073 (reduced coord)
 -39.49899  -16.21966  -15.71678  -15.52270   11.95805   13.03543   14.94833   16.22544
  19.68993   20.82208   27.47615   30.02080   30.80261   33.66304   39.77384   41.18369
  41.88292   43.77171   47.49057   48.37969   51.59493   52.68422   53.57326   56.15439
 kpt# 115, nband= 24, wtk=  1.00000, kpt= -0.2135  0.2135  0.4045 (reduced coord)
 -39.50476  -16.22430  -15.70159  -15.49857   11.94404   13.14444   14.81587   16.23252
  19.66635   20.69972   27.50637   30.23087   30.66391   33.70072   39.70970   41.21972
  41.87619   43.78386   47.39407   48.30542   51.48253   52.55370   53.57365   56.26445
 kpt# 116, nband= 24, wtk=  1.00000, kpt= -0.2051  0.2051  0.4017 (reduced coord)
 -39.51053  -16.22831  -15.68608  -15.47394   11.92149   13.25465   14.68838   16.25280
  19.64238   20.57651   27.52869   30.43913   30.52542   33.75389   39.61495   41.12919
  41.96839   43.82928   47.32645   48.23455   51.36371   52.43109   53.58608   56.38848
 kpt# 117, nband= 24, wtk=  1.00000, kpt= -0.1966  0.1966  0.3989 (reduced coord)
 -39.51627  -16.23202  -15.67104  -15.45006   11.89107   13.36582   14.56576   16.28507
  19.61788   20.45238   27.54386   30.38719   30.64542   33.82203   39.49224   40.98510
  42.07963   43.90392   47.29312   48.16615   51.24090   52.31811   53.61124   56.52191
 kpt# 118, nband= 24, wtk=  1.00000, kpt= -0.1882  0.1882  0.3961 (reduced coord)
 -39.52197  -16.23524  -15.65617  -15.42650   11.85372   13.47769   14.44822   16.32809
  19.59287   20.32761   27.55304   30.24967   30.84971   33.90457   39.34639   40.82550
  42.16670   44.00317   47.29833   48.10026   51.11645   52.21716   53.64996   56.66107
 kpt# 119, nband= 24, wtk=  1.00000, kpt= -0.1798  0.1798  0.3933 (reduced coord)
 -39.52762  -16.23809  -15.64167  -15.40353   11.81043   13.58986   14.33585   16.38044
  19.56731   20.20251   27.55719   30.11323   31.05168   34.00048   39.18179   40.66306
  42.21340   44.12224   47.34397   48.03672   50.99238   52.13041   53.70291   56.80189
 kpt# 120, nband= 24, wtk=  1.00000, kpt= -0.1713  0.1713  0.3904 (reduced coord)
 -39.53320  -16.24031  -15.62724  -15.38089   11.76230   13.70212   14.22872   16.44061
  19.54112   20.07718   27.55753   29.97886   31.25180   34.10930   39.00258   40.50276
  42.21422   44.25689   47.42853   47.97511   50.87075   52.06005   53.77087   56.94103
 kpt# 121, nband= 24, wtk=  1.00000, kpt= -0.1629  0.1629  0.3876 (reduced coord)
 -39.53871  -16.24177  -15.61295  -15.35823   11.71041   13.81400   14.12696   16.50721
  19.51429   19.95214   27.55505   29.84727   31.44978   34.22983   38.81248   40.34652
  42.16985   44.40327   47.54716   47.91555   50.75398   52.00856   53.85437   57.07354
 kpt# 122, nband= 24, wtk=  1.00000, kpt= -0.1545  0.1545  0.3848 (reduced coord)
 -39.54413  -16.24285  -15.59912  -15.33687   11.65573   13.92503   14.03057   16.57864
  19.48672   19.82743   27.55046   29.71915   31.64553   34.36091   38.61416   40.19520
  42.08330   44.55790   47.69145   47.85737   50.64471   51.97756   53.95384   57.19800
 kpt# 123, nband= 24, wtk=  1.00000, kpt= -0.1461  0.1461  0.3820 (reduced coord)
 -39.54945  -16.24313  -15.58559  -15.31592   11.59927   13.93967   14.03472   16.65361
  19.45840   19.70367   27.54471   29.59557   31.83905   34.50180   38.41032   40.04935
  41.96045   44.71812   47.80075   47.85099   50.54669   51.96985   54.06967   57.30058
 kpt# 124, nband= 24, wtk=  1.00000, kpt= -0.1376  0.1376  0.3792 (reduced coord)
 -39.55466  -16.24297  -15.57246  -15.29552   11.54192   13.85431   14.14245   16.73073
  19.42922   19.58118   27.53848   29.47751   32.03027   34.65142   38.20303   39.90906
  41.80706   44.88159   47.74542   48.01315   50.46444   51.98800   54.20212   57.38373
 kpt# 125, nband= 24, wtk=  1.00000, kpt= -0.1292  0.1292  0.3764 (reduced coord)
 -39.55974  -16.24226  -15.55976  -15.27609   11.48447   13.77456   14.24759   16.80880
  19.39912   19.46036   27.53224   29.36598   32.21917   34.80889   37.99393   39.77437
  41.62881   45.04640   47.69125   48.16456   50.40340   52.03459   54.35133   57.44620
 kpt# 126, nband= 24, wtk=  1.00000, kpt= -0.1208  0.1208  0.3736 (reduced coord)
 -39.56469  -16.24094  -15.54749  -15.25751   11.42767   13.70049   14.34944   16.88670
  19.34176   19.36805   27.52652   29.26203   32.40571   34.97337   37.78445   39.64522
  41.43097   45.21098   47.63821   48.29207   50.36920   52.11249   54.51733   57.48879
 kpt# 127, nband= 24, wtk=  1.00000, kpt= -0.1124  0.1124  0.3708 (reduced coord)
 -39.56950  -16.23879  -15.53560  -15.23964   11.37217   13.63215   14.44726   16.96349
  19.22598   19.33592   27.52174   29.16667   32.58988   35.14412   37.57589   39.52149
  41.21814   45.37412   47.58630   48.38490   50.36605   52.22445   54.70010   57.51558
 kpt# 128, nband= 24, wtk=  1.00000, kpt= -0.1039  0.1039  0.3680 (reduced coord)
 -39.57415  -16.23624  -15.52434  -15.22305   11.31851   13.56957   14.54011   17.03830
  19.11332   19.30267   27.51814   29.08084   32.77153   35.32040   37.36886   39.40278
  40.99420   45.53449   47.53525   48.43712   50.39443   52.37118   54.89932   57.52905
 kpt# 129, nband= 24, wtk=  1.00000, kpt= -0.0955  0.0955  0.3652 (reduced coord)
 -39.57863  -16.23305  -15.51358  -15.20740   11.26724   13.51280   14.62712   17.11050
  19.00433   19.26822   27.51605   29.00542   32.95080   35.50163   37.16441   39.28868
  40.76271   45.69126   47.48517   48.44968   50.45054   52.55263   55.11474   57.53214
 kpt# 130, nband= 24, wtk=  1.00000, kpt= -0.0871  0.0871  0.3624 (reduced coord)
 -39.58294  -16.22925  -15.50351  -15.19296   11.21879   13.46189   14.70731   17.17956
  18.89948   19.23247   27.51581   28.94106   33.12747   35.68713   36.96328   39.17859
  40.52673   45.84351   47.43607   48.42792   50.52761   52.76648   55.34602   57.52669
 kpt# 131, nband= 24, wtk=  1.00000, kpt= -0.0787  0.0787  0.3596 (reduced coord)
 -39.58706  -16.22482  -15.49387  -15.17955   11.17353   13.41687   14.77966   17.24526
  18.79917   19.19539   27.51764   28.88856   33.30175   35.87644   36.76593   39.07161
  40.28949   45.99066   47.38771   48.38012   50.61913   53.00848   55.59254   57.51203
 kpt# 132, nband= 24, wtk=  1.00000, kpt= -0.0702  0.0702  0.3567 (reduced coord)
 -39.59099  -16.21976  -15.48482  -15.16734   11.13179   13.37776   14.84317   17.30743
  18.70372   19.15689   27.52194   28.84824   33.47347   36.06890   36.57299   38.96638
  40.05417   46.13194   47.34011   48.31359   50.71993   53.27256   55.85378   57.48857
 kpt# 133, nband= 24, wtk=  1.00000, kpt= -0.0618  0.0618  0.3539 (reduced coord)
 -39.59472  -16.21408  -15.47633  -15.15616   11.09386   13.34460   14.89688   17.36609
  18.61339   19.11688   27.52918   28.82030   33.64259   36.26381   36.38505   38.86088
  39.82462   46.26681   47.29330   48.23449   50.82709   53.55149   56.12915   57.45563
 kpt# 134, nband= 24, wtk=  1.00000, kpt= -0.0534  0.0534  0.3511 (reduced coord)
 -39.59824  -16.20774  -15.46842  -15.14635   11.05997   13.31740   14.93994   17.42123
  18.52842   19.07531   27.53976   28.80478   33.80903   36.20257   36.46024   38.75217
  39.60556   46.39442   47.24706   48.14742   50.93923   53.83705   56.41769   57.41248
 kpt# 135, nband= 24, wtk=  1.00000, kpt= -0.0449  0.0449  0.3483 (reduced coord)
 -39.60154  -16.20089  -15.46126  -15.13809   11.03033   13.29617   14.97167   17.47275
  18.44906   19.03209   27.55416   28.80147   33.97252   36.02585   36.65665   38.63632
  39.40308   46.51416   47.20129   48.05576   51.05581   54.11964   56.71851   57.35935
 kpt# 136, nband= 24, wtk=  1.00000, kpt= -0.0365  0.0365  0.3455 (reduced coord)
 -39.60462  -16.19337  -15.45472  -15.13116   11.00509   13.28092   14.99169   17.52022
  18.37590   18.98717   27.57295   28.81008   34.13285   35.85572   36.85055   38.50981
  39.22399   46.62527   47.15600   47.96195   51.17696   54.38813   57.03057   57.29859
 kpt# 137, nband= 24, wtk=  1.00000, kpt= -0.0281  0.0281  0.3427 (reduced coord)
 -39.60747  -16.18517  -15.44877  -15.12531   10.98438   13.27166   14.99988   17.56245
  18.31004   18.94050   27.59650   28.83026   34.28943   35.69297   37.03702   38.37309
  39.07374   46.72691   47.11142   47.86777   51.30264   54.62927   57.23608   57.35221
 kpt# 138, nband= 24, wtk=  1.00000, kpt= -0.0197  0.0197  0.3399 (reduced coord)
 -39.61009  -16.17659  -15.44361  -15.12109   10.96830   13.26837   14.99636   17.59702
  18.25352   18.89201   27.62509   28.86151   34.44098   35.53898   37.20391   38.23725
  38.95352   46.81707   47.06794   47.77451   51.43279   54.82392   57.18237   57.68016
 kpt# 139, nband= 24, wtk=  1.00000, kpt= -0.0112  0.0112  0.3371 (reduced coord)
 -39.61247  -16.16746  -15.43912  -15.11831   10.95691   13.27104   14.98167   17.61992
  18.20995   18.84166   27.65894   28.90341   34.58456   35.39703   37.32209   38.13464
  38.86070   46.89016   47.03048   47.68316   51.56720   54.95163   57.15299   58.00632
 kpt# 140, nband= 24, wtk=  1.00000, kpt= -0.0028  0.0028  0.3343 (reduced coord)
 -39.61460  -16.15801  -15.43547  -15.11728   10.95024   13.27966   14.95657   17.62586
  18.18398   18.78941   27.69801   28.95542   34.71152   35.27566   37.34082   38.11954
  38.79201   46.91880   47.02524   47.59437   51.70503   54.99380   57.16229   58.28935
 kpt# 141, nband= 24, wtk=  1.00000, kpt=  0.0056 -0.0056  0.3315 (reduced coord)
 -39.61649  -16.14787  -15.43235  -15.11742   10.94832   13.29423   14.92216   17.61051
  18.17930   18.73524   27.74229   29.01736   34.79592   35.20155   37.24610   38.20560
  38.74848   46.88783   47.06654   47.50887   51.84568   54.94413   57.21412   58.34076
 kpt# 142, nband= 24, wtk=  1.00000, kpt=  0.0140 -0.0140  0.3287 (reduced coord)
 -39.61813  -16.13707  -15.42959  -15.11874   10.95112   13.31470   14.87961   17.57330
  18.19576   18.67921   27.79150   29.08882   34.79162   35.22098   37.08465   38.33317
  38.74332   46.83683   47.11393   47.42714   51.98744   54.81204   57.29679   58.15679
 kpt# 143, nband= 24, wtk=  1.00000, kpt=  0.0225 -0.0225  0.3258 (reduced coord)
 -39.61952  -16.12600  -15.42782  -15.12183   10.95859   13.34103   14.83003   17.51732
  18.22936   18.62117   27.84506   29.16946   34.71443   35.31768   36.89452   38.42768
  38.81322   46.77674   47.15491   47.34928   52.12723   54.61622   57.38873   57.96639
 kpt# 144, nband= 24, wtk=  1.00000, kpt=  0.0309 -0.0309  0.3230 (reduced coord)
 -39.62065  -16.11463  -15.42696  -15.12682   10.97064   13.37315   14.77471   17.44698
  18.27503   18.56118   27.90240   29.25902   34.61302   35.44291   36.69278   38.45762
  38.97284   46.70864   47.18742   47.27560   52.26071   54.37713   57.46589   57.79072
 kpt# 145, nband= 24, wtk=  1.00000, kpt=  0.0393 -0.0393  0.3202 (reduced coord)
 -39.62153  -16.10271  -15.42652  -15.13249   10.98719   13.41106   14.71495   17.36604
  18.32859   18.49929   27.96314   29.35731   34.50701   35.57796   36.48728   38.45489
  39.18326   46.63159   47.20644   47.21266   52.38102   54.11464   57.50555   57.63770
 kpt# 146, nband= 24, wtk=  1.00000, kpt=  0.0478 -0.0478  0.3174 (reduced coord)
 -39.62215  -16.09047  -15.42673  -15.13998   11.00808   13.45469   14.65187   17.27699
  18.38693   18.43552   28.02653   29.46400   34.40254   35.71626   36.28133   38.44229
  39.41765   46.54416   47.14182   47.23124   52.47434   53.84816   57.48868   57.50981
 kpt# 147, nband= 24, wtk=  1.00000, kpt=  0.0562 -0.0562  0.3146 (reduced coord)
 -39.62253  -16.07788  -15.42758  -15.14889   11.03317   13.50395   14.58657   17.18167
  18.36992   18.44790   28.09192   29.57882   34.30188   35.85556   36.07729   38.42779
  39.66625   46.44491   47.08187   47.24453   52.51503   53.60673   57.40833   57.40910
 kpt# 148, nband= 24, wtk=  1.00000, kpt=  0.0646 -0.0646  0.3118 (reduced coord)
 -39.62264  -16.06499  -15.42911  -15.15940   11.06224   13.55875   14.52005   17.08140
  18.30255   18.50996   28.15867   29.70140   34.20591   35.87648   35.99481   38.41389
  39.92526   46.33255   47.02661   47.25384   52.46250   53.43006   57.27982   57.33368
 kpt# 149, nband= 24, wtk=  1.00000, kpt=  0.0730 -0.0730  0.3090 (reduced coord)
 -39.62251  -16.05170  -15.43088  -15.17101   11.09507   13.61903   14.45323   16.97727
  18.23359   18.57198   28.22631   29.83139   34.11506   35.67981   36.13380   38.40145
  40.19314   46.20679   46.97610   47.26114   52.29319   53.33781   57.12722   57.28597
 kpt# 150, nband= 24, wtk=  1.00000, kpt=  0.0815 -0.0815  0.3062 (reduced coord)
 -39.62213  -16.03831  -15.43354  -15.18403   11.13141   13.68465   14.38687   16.87012
  18.16296   18.63307   28.29428   29.96812   34.02930   35.48788   36.27213   38.39061
  40.46901   46.06623   46.93017   47.26739   52.03629   53.29357   56.98007   57.26459
 kpt# 151, nband= 24, wtk=  1.00000, kpt=  0.0899 -0.0899  0.3034 (reduced coord)
 -39.62150  -16.02474  -15.43676  -15.19835   11.17094   13.75551   14.32172   16.76080
  18.09089   18.69254   28.36216   30.11104   33.94863   35.30116   36.40973   38.38136
  40.75244   45.91147   46.88875   47.27379   51.73418   53.24713   56.86285   57.26869
 kpt# 152, nband= 24, wtk=  1.00000, kpt=  0.0983 -0.0983  0.3006 (reduced coord)
 -39.62064  -16.01125  -15.44073  -15.21396   11.21334   13.83145   14.25836   16.65008
  18.01749   18.74979   28.42958   30.25946   33.87281   35.12002   36.54638   38.37342
  41.04312   45.74313   46.85162   47.28115   51.41189   53.16659   56.79355   57.29703
 kpt# 153, nband= 24, wtk=  1.00000, kpt=  0.1067 -0.1067  0.2978 (reduced coord)
 -39.61954  -15.99729  -15.44530  -15.23069   11.25825   13.91228   14.19746   16.53881
  17.94296   18.80453   28.49617   30.41257   33.80175   34.94493   36.68200   38.36706
  41.34079   45.56209   46.81867   47.28987   51.08295   53.03806   56.78228   57.34846
 kpt# 154, nband= 24, wtk=  1.00000, kpt=  0.1152 -0.1152  0.2949 (reduced coord)
 -39.61821  -15.98318  -15.44967  -15.24856   11.30532   13.99789   14.13931   16.42776
  17.86758   18.85636   28.56185   30.56959   33.73513   34.77578   36.81725   38.36182
  41.64531   45.37010   46.78947   47.30123   50.75375   52.85868   56.83049   57.42159
 kpt# 155, nband= 24, wtk=  1.00000, kpt=  0.1236 -0.1236  0.2921 (reduced coord)
 -39.61665  -15.96930  -15.45491  -15.26749   11.35405   14.08427   14.08801   16.31768
  17.79144   18.90502   28.62624   30.72934   33.67252   34.61281   36.95156   38.35769
  41.95627   45.16846   46.76325   47.31492   50.42909   52.63396   56.93275   57.51442
 kpt# 156, nband= 24, wtk=  1.00000, kpt=  0.1320 -0.1320  0.2893 (reduced coord)
 -39.61488  -15.95556  -15.46068  -15.28746   11.40402   14.03255   14.18238   16.20952
  17.71487   18.95030   28.68916   30.89082   33.61353   34.45619   37.08478   38.35462
  42.27332   44.95903   46.73952   47.33123   50.11250   52.37305   57.08056   57.62546
 kpt# 157, nband= 24, wtk=  1.00000, kpt=  0.1404 -0.1404  0.2865 (reduced coord)
 -39.61290  -15.94183  -15.46669  -15.30833   11.45477   13.98428   14.28069   16.10414
  17.63826   18.99216   28.75035   31.05296   33.55776   34.30608   37.21721   38.35302
  42.59583   44.74393   46.71739   47.35029   49.80716   52.08569   57.26469   57.75320
 kpt# 158, nband= 24, wtk=  1.00000, kpt=  0.1489 -0.1489  0.2837 (reduced coord)
 -39.61071  -15.92833  -15.47314  -15.32988   11.50585   13.93934   14.38256   16.00265
  17.56195   19.03051   28.80966   31.21459   33.50466   34.16237   37.34856   38.35278
  42.92309   44.52468   46.69583   47.37215   49.51605   51.78032   57.47728   57.89572
 kpt# 159, nband= 24, wtk=  1.00000, kpt=  0.1573 -0.1573  0.2809 (reduced coord)
 -39.60834  -15.91507  -15.47992  -15.35161   11.55679   13.89753   14.48753   15.90614
  17.48644   19.06540   28.86680   31.37446   33.45372   34.02545   37.47872   38.35466
  43.25395   44.30351   46.67361   47.39678   49.24245   51.46432   57.71153   58.05155
 kpt# 160, nband= 24, wtk=  1.00000, kpt=  0.1657 -0.1657  0.2781 (reduced coord)
 -39.60578  -15.90225  -15.48702  -15.37433   11.60714   13.85837   14.59503   15.81572
  17.41233   19.09689   28.92144   31.53122   33.40431   33.89452   37.60749   38.35861
  43.58646   44.08238   46.64929   47.42415   48.98956   51.14344   57.96170   58.21910
 kpt# 161, nband= 24, wtk=  1.00000, kpt=  0.1742 -0.1742  0.2753 (reduced coord)
 -39.60305  -15.88994  -15.49439  -15.39737   11.65651   13.82124   14.70433   15.73271
  17.34035   19.12515   28.97326   31.68360   33.35582   33.76975   37.73466   38.36558
  43.86332   43.91776   46.62208   47.45419   48.76124   50.82276   58.22327   58.39661
 kpt# 162, nband= 24, wtk=  1.00000, kpt=  0.1826 -0.1826  0.2725 (reduced coord)
 -39.60016  -15.87832  -15.50200  -15.42055   11.70456   13.78533   14.81452   15.65842
  17.27144   19.15037   29.02186   31.83032   33.30757   33.65085   37.85990   38.37639
  43.64836   44.24296   46.59265   47.48680   48.56118   50.50667   58.49230   58.58261
 kpt# 163, nband= 24, wtk=  1.00000, kpt=  0.1910 -0.1910  0.2697 (reduced coord)
 -39.59712  -15.86753  -15.50982  -15.44352   11.75102   13.74967   14.92439   15.59423
  17.20679   19.17284   29.06680   31.97020   33.25883   33.53742   37.98286   38.39209
  43.43957   44.55340   46.56555   47.52188   48.39242   50.19941   58.76459   58.77350
 kpt# 164, nband= 24, wtk=  1.00000, kpt=  0.1994 -0.1994  0.2669 (reduced coord)
 -39.59394  -15.85792  -15.51781  -15.46616   11.79570   13.71316   15.03243   15.54137
  17.14793   19.19288   29.10756   32.10212   33.20887   33.42886   38.10307   38.41362
  43.23902   44.83329   46.55325   47.55929   48.25629   49.90527   58.96923   59.03707
 kpt# 165, nband= 24, wtk=  1.00000, kpt=  0.2079 -0.2079  0.2640 (reduced coord)
 -39.59064  -15.85009  -15.52624  -15.48843   11.83843   13.67475   15.13655   15.50094
  17.09683   19.21079   29.14348   32.22508   33.15687   33.32435   38.21979   38.44211
  43.04853   45.05584   46.58071   47.59857   48.15123   49.62899   59.16664   59.30560
 kpt# 166, nband= 24, wtk=  1.00000, kpt=  0.2163 -0.2163  0.2612 (reduced coord)
 -39.58722  -15.84389  -15.53458  -15.50949   11.87926   13.63358   15.23437   15.47370
  17.05603   19.22721   29.17415   32.33864   33.10210   33.22310   38.33265   38.47889
  42.87059   45.18811   46.68107   47.64001   48.07216   49.37797   59.35698   59.56604
 kpt# 167, nband= 24, wtk=  1.00000, kpt=  0.2247 -0.2247  0.2584 (reduced coord)
 -39.58370  -15.83997  -15.54289  -15.52829   11.91822   13.58901   15.32280   15.46014
  17.02856   19.24261   29.19893   32.44255   33.04375   33.12404   38.44087   38.52511
  42.70762   45.21513   46.87051   47.68343   48.00981   49.16149   59.53567   59.81180
 kpt# 168, nband= 24, wtk=  1.00000, kpt=  0.2331 -0.2331  0.2556 (reduced coord)
 -39.58010  -15.83855  -15.55077  -15.54451   11.95543   13.54078   15.39834   15.46013
  17.01792   19.25759   29.21716   32.53670   32.98142   33.02617   38.54367   38.58178
  42.56182   45.15484   47.13184   47.72852   47.95120   48.99292   59.68464   60.03259
 kpt# 169, nband= 24, wtk=  1.00000, kpt=  0.2416 -0.2416  0.2528 (reduced coord)
 -39.57642  -15.84078  -15.55904  -15.55728   11.99087   13.48904   15.45752   15.47302
  17.02741   19.27277   29.22813   32.62019   32.91363   32.92981   38.63998   38.64973
  42.43488   45.03617   47.43313   47.77491   47.88253   48.88884   59.77818   60.23532
 kpt# 170, nband= 24, wtk=  1.00000, kpt=  0.2500 -0.2500  0.2500 (reduced coord)
 -39.57269  -15.84691  -15.56736  -15.56736   12.02459   13.43426   15.49771   15.49771
  17.05959   19.28882   29.23122   32.68647   32.84004   32.84004   38.72895   38.72895
  42.32879   44.88117   47.71855   47.82234   47.82234   48.86464   59.73949   60.27903
 kpt# 171, nband= 24, wtk=  1.00000, kpt=  0.2438 -0.2437  0.2438 (reduced coord)
 -39.58107  -15.82854  -15.54893  -15.54893   11.94732   13.55997   15.43253   15.43253
  16.96226   19.25257   29.24323   32.57876   32.99641   32.99641   38.55605   38.55605
  42.54040   45.25166   47.35413   47.71738   47.71738   48.82238   59.98776   60.36395
 kpt# 172, nband= 24, wtk=  1.00000, kpt=  0.2375 -0.2375  0.2375 (reduced coord)
 -39.58948  -15.80983  -15.53058  -15.53058   11.86222   13.68773   15.37123   15.37123
  16.86633   19.21780   29.27484   32.46965   33.12098   33.12098   38.41905   38.41905
  42.75253   45.61303   46.99392   47.61569   47.61569   48.78555   60.22471   60.44680
 kpt# 173, nband= 24, wtk=  1.00000, kpt=  0.2313 -0.2312  0.2313 (reduced coord)
 -39.59792  -15.79012  -15.51271  -15.51271   11.77023   13.81740   15.31377   15.31377
  16.77188   19.18367   29.32627   32.35885   33.20924   33.20924   38.32199   38.32199
  42.96498   45.96257   46.63848   47.51760   47.51760   48.75793   60.47271   60.59639
 kpt# 174, nband= 24, wtk=  1.00000, kpt=  0.2250 -0.2250  0.2250 (reduced coord)
 -39.60637  -15.76949  -15.49453  -15.49453   11.67204   13.94892   15.26011   15.26011
  16.67906   19.14950   29.39780   32.24708   33.25865   33.25865   38.26851   38.26851
  43.17765   46.28838   46.29371   47.42341   47.42341   48.74506   60.68654   60.72881
 kpt# 175, nband= 24, wtk=  1.00000, kpt=  0.2188 -0.2187  0.2188 (reduced coord)
 -39.61482  -15.74775  -15.47645  -15.47645   11.56838   14.08213   15.21020   15.21020
  16.58792   19.11476   29.48946   32.13402   33.26735   33.26735   38.25975   38.25975
  43.39036   45.94410   46.59768   47.33356   47.33356   48.75583   60.76321   61.26419
 kpt# 176, nband= 24, wtk=  1.00000, kpt=  0.2125 -0.2125  0.2125 (reduced coord)
 -39.62324  -15.72533  -15.45830  -15.45830   11.45997   14.21690   15.16403   15.16403
  16.49858   19.07867   29.60115   32.01975   33.23614   33.23614   38.29479   38.29479
  43.60337   45.60611   46.86231   47.24862   47.24862   48.80103   60.89170   61.25924
 kpt# 177, nband= 24, wtk=  1.00000, kpt=  0.2063 -0.2062  0.2063 (reduced coord)
 -39.63164  -15.70281  -15.44062  -15.44062   11.34749   14.35309   15.12136   15.12136
  16.41107   19.04095   29.73246   31.90427   33.16784   33.16784   38.37053   38.37053
  43.81562   45.27478   47.07370   47.16813   47.16813   48.89409   61.00980   61.51158
 kpt# 178, nband= 24, wtk=  1.00000, kpt=  0.2000 -0.2000  0.2000 (reduced coord)
 -39.63999  -15.67975  -15.42316  -15.42316   11.23170   14.49053   15.08221   15.08221
  16.32549   19.00137   29.88315   31.78767   33.06697   33.06697   38.48228   38.48228
  44.02737   44.95051   47.09296   47.09296   47.22189   49.04457   61.12607   61.75002
 kpt# 179, nband= 24, wtk=  1.00000, kpt=  0.1938 -0.1937  0.1938 (reduced coord)
 -39.64827  -15.65601  -15.40552  -15.40552   11.11330   14.62908   15.04658   15.04658
  16.24197   18.95980   30.05283   31.67003   32.93882   32.93882   38.62457   38.62457
  44.23932   44.63373   47.02381   47.02381   47.30729   49.25141   61.22669   61.79550
 kpt# 180, nband= 24, wtk=  1.00000, kpt=  0.1875 -0.1875  0.1875 (reduced coord)
 -39.65648  -15.63205  -15.38858  -15.38858   10.99290   14.76853   15.01420   15.01420
  16.16047   18.91620   30.24080   31.55139   32.78871   32.78871   38.79157   38.79157
  44.32468   44.44956   46.96054   46.96054   47.34018   49.50336   61.32131   61.96209
 kpt# 181, nband= 24, wtk=  1.00000, kpt=  0.1813 -0.1812  0.1813 (reduced coord)
 -39.66460  -15.60773  -15.37194  -15.37194   10.87115   14.90870   14.98506   14.98506
  16.08110   18.87063   30.44652   31.43185   32.62163   32.62163   38.97797   38.97797
  44.02373   44.65873   46.90394   46.90394   47.33408   49.78602   61.38869   62.10897
 kpt# 182, nband= 24, wtk=  1.00000, kpt=  0.1750 -0.1750  0.1750 (reduced coord)
 -39.67261  -15.58313  -15.35562  -15.35562   10.74863   14.95906   14.95906   15.04939
  16.00392   18.82325   30.66929   31.31152   32.44198   32.44198   39.17897   39.17897
  43.73119   44.86663   46.85454   46.85454   47.30034   50.08699   61.40988   62.23695
 kpt# 183, nband= 24, wtk=  1.00000, kpt=  0.1688 -0.1687  0.1688 (reduced coord)
 -39.68051  -15.55832  -15.33964  -15.33964   10.62592   14.93608   14.93608   15.19038
  15.92901   18.77424   30.90837   31.19053   32.25344   32.25344   39.39036   39.39036
  43.44733   45.07304   46.81290   46.81290   47.24685   50.39716   61.35974   62.34286
 kpt# 184, nband= 24, wtk=  1.00000, kpt=  0.1625 -0.1625  0.1625 (reduced coord)
 -39.68826  -15.53336  -15.32403  -15.32403   10.50354   14.91599   14.91599   15.33143
  15.85640   18.72388   31.06902   31.16301   32.05910   32.05910   39.60849   39.60849
  43.17240   45.27772   46.77965   46.77965   47.17867   50.71005   61.21485   62.41468
 kpt# 185, nband= 24, wtk=  1.00000, kpt=  0.1563 -0.1562  0.1563 (reduced coord)
 -39.69587  -15.50835  -15.30881  -15.30881   10.38198   14.89867   14.89867   15.47228
  15.78615   18.67244   30.94714   31.43240   31.86149   31.86149   39.83018   39.83018
  42.90667   45.48041   46.75542   46.75542   47.09895   51.02094   60.96815   62.41808
 kpt# 186, nband= 24, wtk=  1.00000, kpt=  0.1500 -0.1500  0.1500 (reduced coord)
 -39.70331  -15.48336  -15.29401  -15.29401   10.26171   14.88398   14.88398   15.61267
  15.71830   18.62022   30.82509   31.66268   31.66268   31.71575   40.05266   40.05266
  42.65034   45.68084   46.74091   46.74091   47.00958   51.32607   60.63811   62.31113
 kpt# 187, nband= 24, wtk=  1.00000, kpt=  0.1438 -0.1437  0.1438 (reduced coord)
 -39.71057  -15.45892  -15.27995  -15.27995   10.14312   14.87176   14.87176   15.65291
  15.75228   18.56756   30.70291   31.46427   31.46427   32.01216   40.27285   40.27285
  42.40360   45.87871   46.73674   46.73674   46.91162   51.62200   60.25213   62.03194
 kpt# 188, nband= 24, wtk=  1.00000, kpt=  0.1375 -0.1375  0.1375 (reduced coord)
 -39.71764  -15.43424  -15.26604  -15.26604   10.02674   14.86189   14.86189   15.59002
  15.89085   18.51477   30.58120   31.26793   31.26793   32.32100   40.48973   40.48973
  42.16668   46.07373   46.74375   46.74375   46.80559   51.90609   59.83659   61.81243
 kpt# 189, nband= 24, wtk=  1.00000, kpt=  0.1313 -0.1312  0.1313 (reduced coord)
 -39.72450  -15.40983  -15.25261  -15.25261    9.91291   14.85420   14.85420   15.52966
  16.02801   18.46217   30.46005   31.07474   31.07474   32.64136   40.70071   40.70071
  41.93972   46.26554   46.69162   46.76254   46.76254   52.17496   59.41088   61.57464
 kpt# 190, nband= 24, wtk=  1.00000, kpt=  0.1250 -0.1250  0.1250 (reduced coord)
 -39.73114  -15.38553  -15.23955  -15.23955    9.80201   14.84856   14.84856   15.47189
  16.16343   18.41008   30.33977   30.88570   30.88570   32.97249   40.90399   40.90399
  41.72288   46.45409   46.56970   46.79408   46.79408   52.42531   58.98925   61.33103
 kpt# 191, nband= 24, wtk=  1.00000, kpt=  0.1188 -0.1187  0.1188 (reduced coord)
 -39.73755  -15.36259  -15.22735  -15.22735    9.69429   14.84472   14.84472   15.41671
  16.29671   18.35876   30.22060   30.70158   30.70158   33.31331   41.09741   41.09741
  41.51628   46.43922   46.63836   46.83805   46.83805   52.65228   58.58245   61.05663
 kpt# 192, nband= 24, wtk=  1.00000, kpt=  0.1125 -0.1125  0.1125 (reduced coord)
 -39.74371  -15.33957  -15.21547  -15.21547    9.59024   14.84257   14.84257   15.36418
  16.42748   18.30855   30.10310   30.52334   30.52334   33.66336   41.28069   41.28069
  41.32003   46.29980   46.81824   46.89527   46.89527   52.85239   58.19996   60.78286
 kpt# 193, nband= 24, wtk=  1.00000, kpt=  0.1063 -0.1062  0.1063 (reduced coord)
 -39.74962  -15.31718  -15.20414  -15.20414    9.49008   14.84193   14.84193   15.31433
  16.55530   18.25968   29.98758   30.35155   30.35155   34.02167   41.13424   41.45215
  41.45215   46.15080   46.96575   46.96575   46.99329   53.01969   57.85050   60.50117
 kpt# 194, nband= 24, wtk=  1.00000, kpt=  0.1000 -0.1000  0.1000 (reduced coord)
 -39.75525  -15.29638  -15.19348  -15.19348    9.39405   14.84259   14.84259   15.26717
  16.67973   18.21232   29.87448   30.18673   30.18673   34.38709   40.95897   41.61059
  41.61059   45.99140   47.04919   47.04919   47.16301   53.14733   57.54212   60.21679
 kpt# 195, nband= 24, wtk=  1.00000, kpt=  0.0938 -0.0937  0.0938 (reduced coord)
 -39.76060  -15.27504  -15.18327  -15.18327    9.30256   14.84441   14.84441   15.22275
  16.80032   18.16698   29.76427   30.02953   30.02953   34.75925   40.79429   41.75614
  41.75614   45.82153   47.14525   47.14525   47.32690   53.23209   57.28363   59.93192
 kpt# 196, nband= 24, wtk=  1.00000, kpt=  0.0875 -0.0875  0.0875 (reduced coord)
 -39.76567  -15.25510  -15.17368  -15.17368    9.21577   14.84719   14.84719   15.18108
  16.91657   18.12357   29.65746   29.88037   29.88037   35.13696   40.64024   41.88820
  41.88820   45.63945   47.25273   47.25273   47.48441   53.26724   57.08044   59.64821
 kpt# 197, nband= 24, wtk=  1.00000, kpt=  0.0813 -0.0812  0.0813 (reduced coord)
 -39.77042  -15.23613  -15.16468  -15.16468    9.13394   14.85076   14.85076   15.14219
  17.02799   18.08239   29.55456   29.73968   29.73968   35.51919   40.49686   42.00682
  42.00682   45.44501   47.37040   47.37040   47.63497   53.25289   56.93482   59.36801
 kpt# 198, nband= 24, wtk=  1.00000, kpt=  0.0750 -0.0750  0.0750 (reduced coord)
 -39.77487  -15.21821  -15.15630  -15.15630    9.05728   14.85492   14.85492   15.10609
  17.13405   18.04361   29.45613   29.60786   29.60786   35.90479   40.36415   42.11231
  42.11231   45.23777   47.49651   47.49651   47.77798   53.19309   56.84407   59.09358
 kpt# 199, nband= 24, wtk=  1.00000, kpt=  0.0688 -0.0687  0.0688 (reduced coord)
 -39.77900  -15.20142  -15.14855  -15.14855    8.98601   14.85951   14.85951   15.07282
  17.23424   18.00740   29.36272   29.48525   29.48525   36.29248   40.24215   42.20519
  42.20519   45.01755   47.62896   47.62896   47.91282   53.09634   56.80080   58.82711
 kpt# 200, nband= 24, wtk=  1.00000, kpt=  0.0625 -0.0625  0.0625 (reduced coord)
 -39.78279  -15.18544  -15.14081  -15.14081    8.92029   14.86443   14.86443   15.04241
  17.32810   17.97390   29.27491   29.37221   29.37221   36.68096   40.13110   42.28636
  42.28636   44.78473   47.76589   47.76589   48.03955   52.97381   56.79481   58.57218
 kpt# 201, nband= 24, wtk=  1.00000, kpt=  0.0563 -0.0562  0.0563 (reduced coord)
 -39.78625  -15.17111  -15.13436  -15.13436    8.86032   14.86936   14.86936   15.01482
  17.41495   17.94322   29.19328   29.26902   29.26902   37.06795   40.03046   42.35628
  42.35628   44.53979   47.90340   47.90340   48.15611   52.83680   56.81535   58.32843
 kpt# 202, nband= 24, wtk=  1.00000, kpt=  0.0500 -0.0500  0.0500 (reduced coord)
 -39.78936  -15.15810  -15.12856  -15.12856    8.80624   14.87424   14.87424   14.99010
  17.49434   17.91549   29.11838   29.17595   29.17595   37.45138   39.94049   42.41599
  42.41599   44.28430   48.03909   48.03909   48.26258   52.69547   56.85289   58.09974
 kpt# 203, nband= 24, wtk=  1.00000, kpt=  0.0438 -0.0437  0.0438 (reduced coord)
 -39.79213  -15.14610  -15.12311  -15.12311    8.75819   14.87895   14.87895   14.96828
  17.56578   17.89081   29.05078   29.09324   29.09324   37.82834   39.86118   42.46651
  42.46651   44.02091   48.17054   48.17054   48.35910   52.55795   56.89960   57.88896
 kpt# 204, nband= 24, wtk=  1.00000, kpt=  0.0375 -0.0375  0.0375 (reduced coord)
 -39.79453  -15.13592  -15.11865  -15.11865    8.71630   14.88328   14.88328   14.94933
  17.62879   17.86925   28.99099   29.02112   29.02112   38.19461   39.79249   42.50834
  42.50834   43.75276   48.29297   48.29297   48.44348   52.43033   56.94995   57.69827
 kpt# 205, nband= 24, wtk=  1.00000, kpt=  0.0313 -0.0312  0.0313 (reduced coord)
 -39.79658  -15.12655  -15.11473  -15.11473    8.68067   14.88720   14.88720   14.93328
  17.68293   17.85094   28.93950   28.95978   28.95978   38.54448   39.73444   42.54249
  42.54249   43.48631   48.40450   48.40450   48.51599   52.31710   56.99802   57.53077
 kpt# 206, nband= 24, wtk=  1.00000, kpt=  0.0250 -0.0250  0.0250 (reduced coord)
 -39.79826  -15.11891  -15.11162  -15.11162    8.65140   14.89052   14.89052   14.92013
  17.72780   17.83593   28.89674   28.90936   28.90936   38.86990   39.68695   42.56944
  42.56944   43.22886   48.50063   48.50063   48.57605   52.22132   57.07495   57.38899
 kpt# 207, nband= 24, wtk=  1.00000, kpt=  0.0188 -0.0187  0.0188 (reduced coord)
 -39.79956  -15.11333  -15.10921  -15.10921    8.62855   14.89319   14.89319   14.90990
  17.76307   17.82413   28.86307   28.87001   28.87001   39.15824   39.65004   42.58982
  42.58982   42.99279   48.57895   48.57895   48.62325   52.14506   57.12348   57.27559
 kpt# 208, nband= 24, wtk=  1.00000, kpt=  0.0125 -0.0125  0.0125 (reduced coord)
 -39.80050  -15.10932  -15.10749  -15.10749    8.61219   14.89514   14.89514   14.90259
  17.78846   17.81568   28.83880   28.84183   28.84183   39.39177   39.62369   42.60406
  42.60406   42.79645   48.63693   48.63693   48.65724   52.08976   57.13151   57.19279
 kpt# 209, nband= 24, wtk=  1.00000, kpt=  0.0063 -0.0062  0.0063 (reduced coord)
 -39.80106  -15.10691  -15.10645  -15.10645    8.60236   14.89634   14.89634   14.89820
  17.80378   17.81059   28.82414   28.82489   28.82489   39.54742   39.60788   42.61248
  42.61248   42.66306   48.67257   48.67257   48.67774   52.05628   57.12841   57.14236
 kpt# 210, nband= 24, wtk=  1.00000, kpt=  0.0000  0.0000  0.0000 (reduced coord)
 -39.80125  -15.10610  -15.10610  -15.10610    8.59908   14.89674   14.89674   14.89674
  17.80890   17.80890   28.81924   28.81924   28.81924   39.60262   39.60262   42.61526
  42.61526   42.61526   48.68459   48.68459   48.68459   52.04507   57.12542   57.12542
 kpt# 211, nband= 24, wtk=  1.00000, kpt=  0.0036  0.0036  0.0036 (reduced coord)
 -39.80106  -15.10737  -15.10623  -15.10623    8.60238   14.89522   14.89522   14.90044
  17.80717   17.80717   28.82136   28.82635   28.82635   39.57725   39.57725   42.59833
  42.64524   42.64524   48.66247   48.68005   48.68005   52.05644   57.13057   57.13405
 kpt# 212, nband= 24, wtk=  1.00000, kpt=  0.0072  0.0072  0.0072 (reduced coord)
 -39.80050  -15.11116  -15.10659  -15.10659    8.61229   14.89065   14.89065   14.91156
  17.80206   17.80206   28.82772   28.84757   28.84757   39.50421   39.50421   42.54786
  42.73207   42.73207   48.59631   48.66655   48.66655   52.09115   57.14595   57.15826
 kpt# 213, nband= 24, wtk=  1.00000, kpt=  0.0109  0.0109  0.0109 (reduced coord)
 -39.79955  -15.11745  -15.10720  -15.10720    8.62877   14.88300   14.88300   14.93008
  17.79371   17.79371   28.83832   28.88265   28.88265   39.39131   39.39131   42.46487
  42.86787   42.86787   48.48693   48.64441   48.64441   52.15067   57.17140   57.19279
 kpt# 214, nband= 24, wtk=  1.00000, kpt=  0.0145  0.0145  0.0145 (reduced coord)
 -39.79823  -15.12620  -15.10806  -15.10806    8.65176   14.87224   14.87224   14.95603
  17.78238   17.78238   28.85316   28.93117   28.93117   39.24824   39.24824   42.35091
  43.04282   43.04282   48.33607   48.61422   48.61422   52.23656   57.20664   57.23181
 kpt# 215, nband= 24, wtk=  1.00000, kpt=  0.0181  0.0181  0.0181 (reduced coord)
 -39.79655  -15.13777  -15.10917  -15.10917    8.68117   14.85832   14.85832   14.98936
  17.76841   17.76841   28.87224   28.99252   28.99252   39.08420   39.08420   42.20769
  43.24751   43.24751   48.14580   48.57678   48.57678   52.34960   57.25130   57.39695
 kpt# 216, nband= 24, wtk=  1.00000, kpt=  0.0217  0.0217  0.0217 (reduced coord)
 -39.79450  -15.15192  -15.11064  -15.11064    8.71692   14.84116   14.84116   15.03012
  17.75219   17.75219   28.89556   29.06593   29.06593   38.90686   38.90686   42.03761
  43.47380   43.47380   47.92135   48.53302   48.53302   52.48947   57.30465   57.57158
 kpt# 217, nband= 24, wtk=  1.00000, kpt=  0.0254  0.0254  0.0254 (reduced coord)
 -39.79209  -15.16839  -15.11256  -15.11256    8.75887   14.82070   14.82070   15.07835
  17.73419   17.73419   28.92311   29.15047   29.15047   38.72230   38.72230   41.84298
  43.71502   43.71502   47.66745   48.48427   48.48427   52.65480   57.36613   57.42265
 kpt# 218, nband= 24, wtk=  1.00000, kpt=  0.0290  0.0290  0.0290 (reduced coord)
 -39.78933  -15.18647  -15.11444  -15.11444    8.80689   14.79693   14.79693   15.13407
  17.71504   17.71504   28.95491   29.24504   29.24504   38.53543   38.53543   41.62624
  43.96608   43.96608   47.38866   48.43313   48.43313   52.84347   57.43599   57.47412
 kpt# 219, nband= 24, wtk=  1.00000, kpt=  0.0326  0.0326  0.0326 (reduced coord)
 -39.78624  -15.20679  -15.11674  -15.11674    8.86082   14.76977   14.76977   15.19725
  17.69517   17.69517   28.99094   29.34837   29.34837   38.35001   38.35001   41.38916
  44.22149   44.22149   47.08976   48.38142   48.38142   53.05266   57.51293   57.55784
 kpt# 220, nband= 24, wtk=  1.00000, kpt=  0.0362  0.0362  0.0362 (reduced coord)
 -39.78281  -15.22899  -15.11917  -15.11917    8.92048   14.73920   14.73920   15.26791
  17.67521   17.67521   29.03120   29.45901   29.45901   38.16908   38.16908   41.13373
  44.47700   44.47700   46.77535   48.33233   48.33233   53.27938   57.59650   57.63785
 kpt# 221, nband= 24, wtk=  1.00000, kpt=  0.0399  0.0399  0.0399 (reduced coord)
 -39.77906  -15.25309  -15.12186  -15.12186    8.98567   14.70522   14.70522   15.34606
  17.65565   17.65565   29.07571   29.57536   29.57536   37.99546   37.99546   40.86160
  44.72716   44.72716   46.44948   48.28975   48.28975   53.52047   57.68588   57.71425
 kpt# 222, nband= 24, wtk=  1.00000, kpt=  0.0435  0.0435  0.0435 (reduced coord)
 -39.77500  -15.27910  -15.12517  -15.12517    9.05620   14.66783   14.66783   15.43169
  17.63697   17.63697   29.12444   29.69558   29.69558   37.83161   37.83161   40.57415
  44.96575   44.96575   46.11553   48.25836   48.25836   53.77264   57.78007   57.82248
 kpt# 223, nband= 24, wtk=  1.00000, kpt=  0.0471  0.0471  0.0471 (reduced coord)
 -39.77064  -15.30661  -15.12844  -15.12844    9.13184   14.62714   14.62714   15.52482
  17.61971   17.61971   29.17741   29.81774   29.81774   37.68000   37.68000   40.27292
  45.18632   45.18632   45.77698   48.24548   48.24548   54.03248   57.87882   57.92484
 kpt# 224, nband= 24, wtk=  1.00000, kpt=  0.0507  0.0507  0.0507 (reduced coord)
 -39.76601  -15.33561  -15.13200  -15.13200    9.21237   14.58323   14.58323   15.62543
  17.60425   17.60425   29.23461   29.93963   29.93963   37.54297   37.54297   39.95896
  45.38053   45.38053   45.43632   48.25831   48.25831   54.29630   57.98108   58.04776
 kpt# 225, nband= 24, wtk=  1.00000, kpt=  0.0543  0.0543  0.0543 (reduced coord)
 -39.76110  -15.36636  -15.13587  -15.13587    9.29754   14.53625   14.53625   15.73343
  17.59095   17.59095   29.29605   30.05895   30.05895   37.42289   37.42289   39.63321
  45.09536   45.54002   45.54002   48.30494   48.30494   54.55955   58.08598   58.13976
 kpt# 226, nband= 24, wtk=  1.00000, kpt=  0.0580  0.0580  0.0580 (reduced coord)
 -39.75594  -15.39795  -15.14003  -15.14003    9.38713   14.48636   14.48636   15.84893
  17.58011   17.58011   29.36171   30.17324   30.17324   37.32218   37.32218   39.29674
  44.75697   45.65776   45.65776   48.39216   48.39216   54.81830   58.19267   58.28397
 kpt# 227, nband= 24, wtk=  1.00000, kpt=  0.0616  0.0616  0.0616 (reduced coord)
 -39.75055  -15.43060  -15.14451  -15.14451    9.48089   14.43381   14.43381   15.97184
  17.57196   17.57196   29.43160   30.27996   30.27996   37.24324   37.24324   38.95033
  44.42229   45.73009   45.73009   48.52339   48.52339   55.06666   58.30010   58.38675
 kpt# 228, nband= 24, wtk=  1.00000, kpt=  0.0652  0.0652  0.0652 (reduced coord)
 -39.74494  -15.46307  -15.14989  -15.14989    9.57865   14.37880   14.37880   16.10212
  17.56665   17.56665   29.50569   30.37680   30.37680   37.18825   37.18825   38.59573
  44.09284   45.75757   45.75757   48.69690   48.69690   55.29836   58.40682   58.46411
 kpt# 229, nband= 24, wtk=  1.00000, kpt=  0.0688  0.0688  0.0688 (reduced coord)
 -39.73912  -15.49741  -15.15503  -15.15503    9.67998   14.32171   14.32171   16.23968
  17.56432   17.56432   29.58402   30.46097   30.46097   37.15969   37.15969   38.23173
  43.76939   45.74564   45.74564   48.90878   48.90878   55.50629   58.51168   58.56238
 kpt# 230, nband= 24, wtk=  1.00000, kpt=  0.0725  0.0725  0.0725 (reduced coord)
 -39.73312  -15.53234  -15.16050  -15.16050    9.78472   14.26280   14.26280   16.38446
  17.56500   17.56500   29.66658   30.53054   30.53054   37.15929   37.15929   37.86009
  43.45306   45.70062   45.70062   49.15134   49.15134   55.68375   58.61228   58.66885
 kpt# 231, nband= 24, wtk=  1.00000, kpt=  0.0761  0.0761  0.0761 (reduced coord)
 -39.72695  -15.56728  -15.16613  -15.16613    9.89266   14.20244   14.20244   16.53637
  17.56871   17.56871   29.75336   30.58400   30.58400   37.18855   37.18855   37.48189
  43.14465   45.62961   45.62961   49.41731   49.41731   55.82535   58.70520   58.75015
 kpt# 232, nband= 24, wtk=  1.00000, kpt=  0.0797  0.0797  0.0797 (reduced coord)
 -39.72064  -15.60330  -15.17252  -15.17252   10.00345   14.14090   14.14090   16.69526
  17.57535   17.57535   29.84436   30.61972   30.61972   37.09710   37.24831   37.24831
  42.84458   45.53768   45.53768   49.69956   49.69956   55.92780   58.78386   58.88532
 kpt# 233, nband= 24, wtk=  1.00000, kpt=  0.0833  0.0833  0.0833 (reduced coord)
 -39.71419  -15.63906  -15.17904  -15.17904   10.11691   14.07858   14.07858   16.86107
  17.58495   17.58495   29.93957   30.63737   30.63737   36.70703   37.33891   37.33891
  42.55339   45.43030   45.43030   49.99299   49.99299   55.99220   58.83760   58.89779
 kpt# 234, nband= 24, wtk=  1.00000, kpt=  0.0870  0.0870  0.0870 (reduced coord)
 -39.70764  -15.67478  -15.18591  -15.18591   10.23280   14.01583   14.01583   17.03363
  17.59735   17.59735   30.03899   30.63698   30.63698   36.31232   37.45999   37.45999
  42.27143   45.31099   45.31099   50.29218   50.29218   56.02138   58.84204   58.85755
 kpt# 235, nband= 24, wtk=  1.00000, kpt=  0.0906  0.0906  0.0906 (reduced coord)
 -39.70100  -15.71030  -15.19316  -15.19316   10.35087   13.95297   13.95297   17.21275
  17.61244   17.61244   30.14263   30.61915   30.61915   35.91373   37.61060   37.61060
  41.99896   45.18262   45.18262   50.59228   50.59228   56.02006   58.75552   58.75578
 kpt# 236, nband= 24, wtk=  1.00000, kpt=  0.0942  0.0942  0.0942 (reduced coord)
 -39.69429  -15.74594  -15.20055  -15.20055   10.47089   13.89035   13.89035   17.39802
  17.63008   17.63008   30.25048   30.58520   30.58520   35.51210   37.78931   37.78931
  41.73580   45.04774   45.04774   50.88828   50.88828   55.99192   58.54560   58.54563
 kpt# 237, nband= 24, wtk=  1.00000, kpt=  0.0978  0.0978  0.0978 (reduced coord)
 -39.68753  -15.78066  -15.20854  -15.20854   10.59262   13.82828   13.82828   17.58967
  17.65009   17.65009   30.36252   30.53613   30.53613   35.10799   37.99426   37.99426
  41.48284   44.90759   44.90759   51.17465   51.17465   55.94468   58.24004   58.24004
 kpt# 238, nband= 24, wtk=  1.00000, kpt=  0.1014  0.1014  0.1014 (reduced coord)
 -39.68075  -15.81474  -15.21691  -15.21691   10.71585   13.76707   13.76707   17.67231
  17.67231   17.78725   30.47380   30.47380   30.47876   34.70222   38.22338   38.22338
  41.23980   44.76398   44.76398   51.44456   51.44456   55.88097   57.89473   57.89473
 kpt# 239, nband= 24, wtk=  1.00000, kpt=  0.1051  0.1051  0.1051 (reduced coord)
 -39.67395  -15.84806  -15.22565  -15.22565   10.84036   13.70700   13.70700   17.69656
  17.69656   17.99050   30.39992   30.39992   30.59921   34.29553   38.47441   38.47441
  41.00676   44.61829   44.61829   51.68935   51.68935   55.80412   57.54984   57.54984
 kpt# 240, nband= 24, wtk=  1.00000, kpt=  0.1087  0.1087  0.1087 (reduced coord)
 -39.66716  -15.88046  -15.23478  -15.23478   10.96591   13.64835   13.64835   17.72268
  17.72268   18.19915   30.31621   30.31621   30.72384   33.88860   38.74500   38.74500
  40.78380   44.47178   44.47178   51.89789   51.89789   55.71679   57.23132   57.23132
 kpt# 241, nband= 24, wtk=  1.00000, kpt=  0.1123  0.1123  0.1123 (reduced coord)
 -39.66040  -15.91184  -15.24429  -15.24429   11.09229   13.59136   13.59136   17.75048
  17.75048   18.41287   30.22430   30.22430   30.85267   33.48214   39.03270   39.03270
  40.57099   44.32578   44.32578   52.05636   52.05636   55.62111   56.95973   56.95973
 kpt# 242, nband= 24, wtk=  1.00000, kpt=  0.1159  0.1159  0.1159 (reduced coord)
 -39.65369  -15.94206  -15.25419  -15.25419   11.21928   13.53627   13.53627   17.77978
  17.77978   18.63134   30.12568   30.12568   30.98568   33.07680   39.33493   39.33493
  40.36841   44.18174   44.18174   52.14943   52.14943   55.51877   56.75364   56.75364
 kpt# 243, nband= 24, wtk=  1.00000, kpt=  0.1196  0.1196  0.1196 (reduced coord)
 -39.64704  -15.97085  -15.26416  -15.26416   11.34669   13.48328   13.48328   17.81044
  17.81044   18.85426   30.02193   30.02193   31.12289   32.67330   39.64883   39.64883
  40.17616   44.04174   44.04174   52.16355   52.16355   55.41116   56.62825   56.62825
 kpt# 244, nband= 24, wtk=  1.00000, kpt=  0.1232  0.1232  0.1232 (reduced coord)
 -39.64048  -15.99843  -15.27483  -15.27483   11.47422   13.43259   13.43259   17.84220
  17.84220   19.08116   29.91384   29.91384   31.26426   32.27218   39.97101   39.97101
  39.99429   43.90761   43.90761   52.09159   52.09159   55.29936   56.59100   56.59100
 kpt# 245, nband= 24, wtk=  1.00000, kpt=  0.1268  0.1268  0.1268 (reduced coord)
 -39.63402  -16.02453  -15.28588  -15.28588   11.60168   13.38436   13.38436   17.87493
  17.87493   19.31169   29.80269   29.80269   31.40980   31.87413   39.82295   40.29717
  40.29717   43.78307   43.78307   51.93671   51.93671   55.18432   56.63901   56.63901
 kpt# 246, nband= 24, wtk=  1.00000, kpt=  0.1304  0.1304  0.1304 (reduced coord)
 -39.62768  -16.04906  -15.29730  -15.29730   11.72882   13.33875   13.33875   17.90845
  17.90845   19.54542   29.68938   29.68938   31.47975   31.55950   39.66228   40.62130
  40.62130   43.67330   43.67330   51.71058   51.71058   55.06680   56.76033   56.76033
 kpt# 247, nband= 24, wtk=  1.00000, kpt=  0.1341  0.1341  0.1341 (reduced coord)
 -39.62146  -16.07213  -15.30979  -15.30979   11.85537   13.29581   13.29581   17.94252
  17.94252   19.78190   29.57471   29.57471   31.08939   31.71336   39.51229   40.93418
  40.93418   43.58603   43.58603   51.42845   51.42845   54.94725   56.93837   56.93837
 kpt# 248, nband= 24, wtk=  1.00000, kpt=  0.1377  0.1377  0.1377 (reduced coord)
 -39.61540  -16.09326  -15.32196  -15.32196   11.98111   13.25582   13.25582   17.97713
  17.97713   20.02069   29.45935   29.45935   30.70418   31.87139   39.37342   41.22250
  41.22250   43.53543   43.53543   51.10589   51.10589   54.82668   57.15833   57.15833
 kpt# 249, nband= 24, wtk=  1.00000, kpt=  0.1413  0.1413  0.1413 (reduced coord)
 -39.60950  -16.11257  -15.33450  -15.33450   12.10573   13.21880   13.21880   18.01204
  18.01204   20.26128   29.34389   29.34389   30.32446   32.03356   39.24575   41.46618
  41.46618   43.54019   43.54019   50.75497   50.75497   54.70537   57.40621   57.40621
 kpt# 250, nband= 24, wtk=  1.00000, kpt=  0.1449  0.1449  0.1449 (reduced coord)
 -39.60378  -16.12999  -15.34738  -15.34738   12.22896   13.18484   13.18484   18.04709
  18.04709   20.50319   29.22880   29.22880   29.95083   32.19988   39.12948   41.64253
  41.64253   43.62236   43.62236   50.38518   50.38518   54.58376   57.67095   57.67095
 kpt# 251, nband= 24, wtk=  1.00000, kpt=  0.1486  0.1486  0.1486 (reduced coord)
 -39.59824  -16.14548  -15.36062  -15.36062   12.35046   13.15400   13.15400   18.08213
  18.08213   20.74588   29.11448   29.11448   29.58389   32.37034   39.02485   41.73792
  41.73792   43.79491   43.79491   50.00365   50.00365   54.46225   57.94337   57.94338
 kpt# 252, nband= 24, wtk=  1.00000, kpt=  0.1522  0.1522  0.1522 (reduced coord)
 -39.59290  -16.15943  -15.37433  -15.37433   12.46986   13.12630   13.12630   18.11700
  18.11700   20.98862   29.00125   29.00125   29.22418   32.54492   38.93210   41.75816
  41.75816   44.05113   44.05113   49.61552   49.61552   54.34095   58.21509   58.21510
 kpt# 253, nband= 24, wtk=  1.00000, kpt=  0.1558  0.1558  0.1558 (reduced coord)
 -39.58777  -16.17090  -15.38822  -15.38822   12.58690   13.10185   13.10185   18.15160
  18.15160   21.23126   28.87248   28.88939   28.88939   32.72363   38.85150   41.72256
  41.72256   44.37084   44.37084   49.22588   49.22588   54.22069   58.47857   58.47858
 kpt# 254, nband= 24, wtk=  1.00000, kpt=  0.1594  0.1594  0.1594 (reduced coord)
 -39.58286  -16.18031  -15.40242  -15.40242   12.70114   13.08064   13.08064   18.18577
  18.18577   21.47302   28.52936   28.77909   28.77909   32.90646   38.78330   41.65039
  41.65039   44.73302   44.73302   48.83853   48.83853   54.10154   58.72497   58.72506
 kpt# 255, nband= 24, wtk=  1.00000, kpt=  0.1630  0.1630  0.1630 (reduced coord)
 -39.57817  -16.18762  -15.41692  -15.41692   12.81218   13.06268   13.06268   18.21940
  18.21940   21.71335   28.19546   28.67051   28.67051   33.09339   38.72779   41.55554
  41.55554   45.12077   45.12077   48.45834   48.45834   53.98378   58.94439   58.94465
 kpt# 256, nband= 24, wtk=  1.00000, kpt=  0.1667  0.1667  0.1667 (reduced coord)
 -39.57371  -16.19364  -15.43246  -15.43246   12.91949   13.04785   13.04785   18.25229
  18.25229   21.95111   27.87130   28.56366   28.56366   33.28440   38.68519   41.44643
  41.44643   45.51843   45.51843   48.09286   48.09286   53.86690   59.12556   59.12588
 kpt# 257, nband= 24, wtk=  1.00000, kpt=  0.1703  0.1703  0.1703 (reduced coord)
 -39.56949  -16.19629  -15.44737  -15.44737   13.02295   13.03637   13.03637   18.28450
  18.28450   22.18676   27.55807   28.45895   28.45895   33.47951   38.65587   41.32965
  41.32965   45.90446   45.90446   47.76057   47.76057   53.75274   59.26049   59.26118
 kpt# 258, nband= 24, wtk=  1.00000, kpt=  0.1739  0.1739  0.1739 (reduced coord)
 -39.56551  -16.19727  -15.46268  -15.46268   13.02809   13.02809   13.12169   18.31580
  18.31580   22.41918   27.25608   28.35598   28.35598   33.67871   38.63998   41.20801
  41.20801   46.22232   46.22232   47.51455   47.51455   53.64077   59.34358   59.34359
 kpt# 259, nband= 24, wtk=  1.00000, kpt=  0.1775  0.1775  0.1775 (reduced coord)
 -39.56178  -16.19614  -15.47823  -15.47823   13.02299   13.02299   13.21535   18.34612
  18.34612   22.64774   26.96626   28.25490   28.25490   33.88197   38.63777   41.08396
  41.08396   46.33210   46.33210   47.49317   47.49317   53.53124   59.37855   59.37862
 kpt# 260, nband= 24, wtk=  1.00000, kpt=  0.1812  0.1812  0.1812 (reduced coord)
 -39.55828  -16.19224  -15.49394  -15.49394   13.02100   13.02100   13.30369   18.37538
  18.37538   22.87179   26.68960   28.15576   28.15576   34.08929   38.64943   40.95913
  40.95913   46.17321   46.17321   47.75612   47.75612   53.42442   59.37465   59.37521
 kpt# 261, nband= 24, wtk=  1.00000, kpt=  0.1848  0.1848  0.1848 (reduced coord)
 -39.55504  -16.18693  -15.50990  -15.50990   13.02207   13.02207   13.38563   18.40350
  18.40350   23.09059   26.42676   28.05835   28.05835   34.30066   38.67511   40.83455
  40.83455   45.88900   45.88900   48.15918   48.15918   53.32052   59.34090   59.34166
 kpt# 262, nband= 24, wtk=  1.00000, kpt=  0.1884  0.1884  0.1884 (reduced coord)
 -39.55203  -16.17956  -15.52603  -15.52603   13.02613   13.02613   13.46090   18.43040
  18.43040   23.30331   26.17899   27.96265   27.96265   34.51606   38.71492   40.71109
  40.71109   45.56662   45.56662   48.61487   48.61487   53.21981   59.28509   59.28552
 kpt# 263, nband= 24, wtk=  1.00000, kpt=  0.1920  0.1920  0.1920 (reduced coord)
 -39.54927  -16.17017  -15.54232  -15.54232   13.03308   13.03308   13.52898   18.45603
  18.45603   23.50890   25.94766   27.86855   27.86855   34.73548   38.76888   40.58933
  40.58933   45.23380   45.23380   49.09513   49.09513   53.12254   59.21274   59.21298
 kpt# 264, nband= 24, wtk=  1.00000, kpt=  0.1957  0.1957  0.1957 (reduced coord)
 -39.54675  -16.15880  -15.55874  -15.55874   13.04284   13.04284   13.58935   18.48032
  18.48032   23.70584   25.73458   27.77594   27.77594   34.95890   38.83698   40.46970
  40.46970   44.90049   44.90049   49.58978   49.58978   53.02897   59.12769   59.12792
 kpt# 265, nband= 24, wtk=  1.00000, kpt=  0.1993  0.1993  0.1993 (reduced coord)
 -39.54446  -16.14641  -15.57559  -15.57559   13.05519   13.05519   13.64141   18.50318
  18.50318   23.89134   25.54230   27.68467   27.68467   35.18632   38.91901   40.35240
  40.35240   44.57094   44.57094   50.09384   50.09384   52.93919   59.03256   59.03314
 kpt# 266, nband= 24, wtk=  1.00000, kpt=  0.2029  0.2029  0.2029 (reduced coord)
 -39.54240  -16.13128  -15.59222  -15.59222   13.07024   13.07024   13.68494   18.52468
  18.52468   24.06195   25.37578   27.59463   27.59463   35.41771   39.01495   40.23782
  40.23782   44.24802   44.24802   50.60528   50.60528   52.85384   58.92959   58.93030
 kpt# 267, nband= 24, wtk=  1.00000, kpt=  0.2065  0.2065  0.2065 (reduced coord)
 -39.54056  -16.11467  -15.60894  -15.60894   13.08772   13.08772   13.71942   18.54473
  18.54473   24.20898   25.24321   27.50567   27.50567   35.65306   39.12441   40.12586
  40.12586   43.93309   43.93309   51.12191   51.12191   52.77288   58.82026   58.82085
 kpt# 268, nband= 24, wtk=  1.00000, kpt=  0.2101  0.2101  0.2101 (reduced coord)
 -39.53893  -16.09604  -15.62568  -15.62568   13.10755   13.10755   13.74462   18.56330
  18.56330   24.31821   25.15970   27.41766   27.41766   35.89235   39.24703   40.01649
  40.01649   43.62743   43.62743   51.64224   51.64224   52.69691   58.70596   58.70640
 kpt# 269, nband= 24, wtk=  1.00000, kpt=  0.2138  0.2138  0.2138 (reduced coord)
 -39.53751  -16.07576  -15.64243  -15.64243   13.12955   13.12955   13.76028   18.58036
  18.58036   24.37120   25.14373   27.33048   27.33048   36.13556   39.38229   39.90945
  39.90945   43.33213   43.33213   52.16464   52.16464   52.62607   58.58814   58.58846
 kpt# 270, nband= 24, wtk=  1.00000, kpt=  0.2174  0.2174  0.2174 (reduced coord)
 -39.53628  -16.05394  -15.65917  -15.65917   13.15358   13.15358   13.76631   18.59590
  18.59590   24.36537   25.19815   27.24400   27.24400   36.38267   39.52958   39.80431
  39.80431   43.04827   43.04827   52.56068   52.68722   52.68722   58.46846   58.46868
 kpt# 271, nband= 24, wtk=  1.00000, kpt=  0.2210  0.2210  0.2210 (reduced coord)
 -39.53523  -16.03000  -15.67584  -15.67584   13.17947   13.17947   13.76303   18.60990
  18.60990   24.32215   25.30174   27.15820   27.15820   36.63366   39.68820   39.70048
  39.70048   42.77705   42.77705   52.50110   53.20761   53.20761   58.34918   58.34918
 kpt# 272, nband= 24, wtk=  1.00000, kpt=  0.2246  0.2246  0.2246 (reduced coord)
 -39.53436  -16.00539  -15.69250  -15.69250   13.20705   13.20705   13.74996   18.62232
  18.62232   24.26487   25.43131   27.07292   27.07292   36.88850   39.59713   39.59713
  39.85723   42.51966   42.51966   52.44762   53.72193   53.72193   58.23347   58.23347
 kpt# 273, nband= 24, wtk=  1.00000, kpt=  0.2283  0.2283  0.2283 (reduced coord)
 -39.53365  -15.97953  -15.70907  -15.70907   13.23614   13.23614   13.72769   18.63317
  18.63317   24.20713   25.57334   26.98816   26.98816   37.14718   39.49318   39.49318
  40.03574   42.27757   42.27757   52.40058   54.22463   54.22463   58.12652   58.12653
 kpt# 274, nband= 24, wtk=  1.00000, kpt=  0.2319  0.2319  0.2319 (reduced coord)
 -39.53309  -15.95254  -15.72554  -15.72554   13.26653   13.26653   13.69662   18.64241
  18.64241   24.15541   25.72136   26.90393   26.90393   37.40966   39.38734   39.38734
  40.22265   42.05238   42.05238   52.36030   54.70646   54.70646   58.03688   58.03688
 kpt# 275, nband= 24, wtk=  1.00000, kpt=  0.2355  0.2355  0.2355 (reduced coord)
 -39.53266  -15.92454  -15.74187  -15.74187   13.29805   13.29805   13.65726   18.65003
  18.65003   24.11254   25.87244   26.82027   26.82027   37.67591   39.27814   39.27814
  40.41675   41.84578   41.84578   52.32708   55.15176   55.15176   57.97897   57.97897
 kpt# 276, nband= 24, wtk=  1.00000, kpt=  0.2391  0.2391  0.2391 (reduced coord)
 -39.53235  -15.89565  -15.75805  -15.75805   13.33046   13.33046   13.61025   18.65601
  18.65601   24.07959   26.02538   26.73724   26.73724   37.94591   39.16399   39.16399
  40.61676   41.65953   41.65953   52.30117   55.53512   55.53512   57.97578   57.97578
 kpt# 277, nband= 24, wtk=  1.00000, kpt=  0.2428  0.2428  0.2428 (reduced coord)
 -39.53215  -15.86645  -15.77459  -15.77459   13.36343   13.36343   13.55622   18.66020
  18.66020   24.05669   26.17976   26.65491   26.65491   38.21960   39.04336   39.04336
  40.82111   41.49501   41.49501   52.28272   55.82150   55.82150   58.05539   58.05539
 kpt# 278, nband= 24, wtk=  1.00000, kpt=  0.2464  0.2464  0.2464 (reduced coord)
 -39.53204  -15.83681  -15.79048  -15.79048   13.39697   13.39697   13.49611   18.66277
  18.66277   24.04347   26.33525   26.57354   26.57354   38.49698   38.91497   38.91497
  41.02837   41.35404   41.35404   52.27169   55.98671   55.98671   58.22804   58.23392
 kpt# 279, nband= 24, wtk=  1.00000, kpt=  0.2500  0.2500  0.2500 (reduced coord)
 -39.53201  -15.80607  -15.80607  -15.80607   13.43077   13.43077   13.43077   18.66365
  18.66365   24.03925   26.49330   26.49330   26.49330   38.77801   38.77801   38.77801
  41.23727   41.23727   41.23727   52.26812   56.03554   56.03554   58.43467   58.43488
 kpt# 280, nband= 24, wtk=  1.00000, kpt=  0.2500  0.2412  0.2500 (reduced coord)
 -39.53204  -15.83242  -15.80589  -15.77949   13.37220   13.43000   13.48798   18.66246
  18.66312   24.04323   26.35706   26.49573   26.62966   38.53489   38.77403   39.01798
  41.06516   41.24857   41.42204   52.27151   55.99326   55.99418   58.11600   58.42164
 kpt# 281, nband= 24, wtk=  1.00000, kpt=  0.2500  0.2325  0.2500 (reduced coord)
 -39.53213  -15.85800  -15.80519  -15.75236   13.31260   13.42773   13.54362   18.65897
  18.66156   24.05512   26.22118   26.50307   26.76630   38.29148   38.76160   39.25099
  40.90929   41.28359   41.61662   52.28159   55.86514   55.87454   57.81070   58.29766
 kpt# 282, nband= 24, wtk=  1.00000, kpt=  0.2500  0.2237  0.2500 (reduced coord)
 -39.53228  -15.88330  -15.80381  -15.72540   13.25203   13.42404   13.59748   18.65306
  18.65900   24.07481   26.08502   26.51539   26.90342   38.04987   38.73912   39.47211
  40.77323   41.34493   41.81876   52.29774   55.65084   55.68660   57.55447   58.20531
 kpt# 283, nband= 24, wtk=  1.00000, kpt=  0.2500  0.2149  0.2500 (reduced coord)
 -39.53249  -15.90847  -15.80259  -15.69838   13.19083   13.41876   13.64928   18.64459
  18.65552   24.10206   25.94847   26.53248   27.04106   37.81153   38.70444   39.67554
  40.66099   41.43673   42.02618   52.31888   55.35994   55.44327   57.35517   58.11269
 kpt# 284, nband= 24, wtk=  1.00000, kpt=  0.2500  0.2061  0.2500 (reduced coord)
 -39.53276  -15.93312  -15.80096  -15.67151   13.12922   13.41208   13.69889   18.63359
  18.65116   24.13652   25.81180   26.55463   27.17943   37.57764   38.65544   39.85570
  40.57608   41.56355   42.23742   52.34315   55.01269   55.15936   57.20306   58.04717
 kpt# 285, nband= 24, wtk=  1.00000, kpt=  0.2500  0.1974  0.2500 (reduced coord)
 -39.53308  -15.95720  -15.79905  -15.64496   13.06745   13.40406   13.74614   18.61995
  18.64608   24.17765   25.67518   26.58167   27.31863   37.34897   38.59082   40.00877
  40.52095   41.72822   42.45113   52.36704   54.63238   54.84663   57.08423   57.99740
 kpt# 286, nband= 24, wtk=  1.00000, kpt=  0.2500  0.1886  0.2500 (reduced coord)
 -39.53347  -15.98061  -15.79681  -15.61865   13.00580   13.39478   13.79089   18.60358
  18.64041   24.22461   25.53911   26.61376   27.45877   37.12617   38.51078   40.13423
  40.49624   41.93058   42.66620   52.38375   54.24131   54.51406   56.98765   57.95912
 kpt# 287, nband= 24, wtk=  1.00000, kpt=  0.2500  0.1798  0.2500 (reduced coord)
 -39.53391  -16.00330  -15.79400  -15.59265   12.94453   13.38438   13.83302   18.58438
  18.63434   24.27603   25.40464   26.65106   27.59997   36.90972   38.41713   40.23488
  40.50080   42.16732   42.88172   52.37910   53.86402   54.16830   56.90625   57.93034
 kpt# 288, nband= 24, wtk=  1.00000, kpt=  0.2500  0.1711  0.2500 (reduced coord)
 -39.53440  -16.02519  -15.79110  -15.56708   12.88388   13.37290   13.87242   18.56222
  18.62800   24.32949   25.27370   26.69345   27.74220   36.69997   38.31282   40.31517
  40.53204   42.43328   43.09682   52.32353   53.53633   53.81370   56.83590   57.90817
 kpt# 289, nband= 24, wtk=  1.00000, kpt=  0.2500  0.1623  0.2500 (reduced coord)
 -39.53495  -16.04654  -15.78792  -15.54206   12.82408   13.36050   13.90889   18.53697
  18.62156   24.38031   25.15057   26.74106   27.88550   36.49717   38.20137   40.38004
  40.58671   42.72317   43.31086   52.17098   53.30819   53.45363   56.77468   57.89228
 kpt# 290, nband= 24, wtk=  1.00000, kpt=  0.2500  0.1535  0.2500 (reduced coord)
 -39.53555  -16.06668  -15.78440  -15.51755   12.76538   13.34729   13.94265   18.50854
  18.61524   24.41893   25.04441   26.79399   28.02991   36.30153   38.08631   40.43368
  40.66141   43.03241   43.52333   51.90075   53.09063   53.20251   56.72196   57.88166
 kpt# 291, nband= 24, wtk=  1.00000, kpt=  0.2500  0.1447  0.2500 (reduced coord)
 -39.53620  -16.08568  -15.78059  -15.49350   12.70806   13.33342   13.97356   18.47682
  18.60920   24.42738   24.97290   26.85227   28.17540   36.11317   37.97092   40.47935
  40.75293   43.35736   43.73375   51.54816   52.72643   53.18506   56.67786   57.87574
 kpt# 292, nband= 24, wtk=  1.00000, kpt=  0.2500  0.1360  0.2500 (reduced coord)
 -39.53689  -16.10397  -15.77647  -15.47005   12.65229   13.31903   14.00151   18.44172
  18.60360   24.38581   24.95518   26.91593   28.32192   35.93218   37.85773   40.51945
  40.85839   43.69529   43.94172   51.15568   52.36238   53.21370   56.64291   57.87409
 kpt# 293, nband= 24, wtk=  1.00000, kpt=  0.2500  0.1272  0.2500 (reduced coord)
 -39.53764  -16.12097  -15.77208  -15.44766   12.59818   13.30426   14.02679   18.40312
  18.59860   24.29514   24.98988   26.98507   28.46942   35.75858   37.74897   40.55570
  40.97520   44.04402   44.14679   50.74721   51.99956   53.26395   56.61776   57.87641
 kpt# 294, nband= 24, wtk=  1.00000, kpt=  0.2500  0.1184  0.2500 (reduced coord)
 -39.53843  -16.13712  -15.76746  -15.42599   12.54604   13.28922   14.04924   18.36099
  18.59429   24.17318   25.05874   27.05968   28.61785   35.59240   37.64656   40.58928
  41.10105   44.34846   44.40199   50.33514   51.63881   53.32298   56.60372   57.88231
 kpt# 295, nband= 24, wtk=  1.00000, kpt=  0.2500  0.1096  0.2500 (reduced coord)
 -39.53926  -16.15189  -15.76250  -15.40523   12.49598   13.27413   14.06913   18.31527
  18.59084   24.03404   25.14722   27.13978   28.76719   35.43358   37.55202   40.62107
  41.23387   44.54608   44.76804   49.92659   51.28102   53.38309   56.60181   57.89137
 kpt# 296, nband= 24, wtk=  1.00000, kpt=  0.2500  0.1009  0.2500 (reduced coord)
 -39.54013  -16.16561  -15.75741  -15.38577   12.44813   13.25905   14.08651   18.26593
  18.58831   23.88484   25.24755   27.22537   28.91737   35.28206   37.46655   40.65166
  41.37165   44.73832   45.14095   49.52653   50.92660   53.43812   56.61280   57.90309
 kpt# 297, nband= 24, wtk=  1.00000, kpt=  0.2500  0.0921  0.2500 (reduced coord)
 -39.54103  -16.17812  -15.75211  -15.36740   12.40267   13.24416   14.10154   18.21297
  18.58679   23.72912   25.35576   27.31642   29.06838   35.13776   37.39112   40.68145
  41.51257   44.92334   45.51992   49.14010   50.57627   53.48373   56.63729   57.91696
 kpt# 298, nband= 24, wtk=  1.00000, kpt=  0.2500  0.0833  0.2500 (reduced coord)
 -39.54197  -16.18916  -15.74638  -15.34985   12.35975   13.22964   14.11447   18.15649
  18.58632   23.56889   25.46958   27.41293   29.22028   35.00072   37.32648   40.71087
  41.65492   45.09784   45.90424   48.77331   50.23085   53.51618   56.67510   57.93009
 kpt# 299, nband= 24, wtk=  1.00000, kpt=  0.2500  0.0746  0.2500 (reduced coord)
 -39.54295  -16.19947  -15.74074  -15.33400   12.31940   13.21556   14.12535   18.09640
  18.58685   23.40478   25.58738   27.51474   29.37288   34.87050   37.27310   40.73966
  41.79696   45.25583   46.29301   48.43385   49.89036   53.53192   56.72399   57.94279
 kpt# 300, nband= 24, wtk=  1.00000, kpt=  0.2500  0.0658  0.2500 (reduced coord)
 -39.54395  -16.20804  -15.73479  -15.31924   12.28175   13.20214   14.13468   18.03288
  18.58849   23.23771   25.70812   27.62191   29.52659   34.74711   37.23134   40.76804
  41.93719   45.38775   46.68568   48.13384   49.55588   53.52864   56.78108   57.94958
 kpt# 301, nband= 24, wtk=  1.00000, kpt=  0.2500  0.0570  0.2500 (reduced coord)
 -39.54498  -16.21543  -15.72884  -15.30588   12.24686   13.18940   14.14259   17.96598
  18.59114   23.06802   25.83086   27.73427   29.68120   34.63035   37.20132   40.79591
  42.07400   45.47822   47.08129   47.89061   49.22775   53.50435   56.84037   57.95019
 kpt# 302, nband= 24, wtk=  1.00000, kpt=  0.2500  0.0482  0.2500 (reduced coord)
 -39.54603  -16.22151  -15.72272  -15.29377   12.21474   13.17753   14.14940   17.89590
  18.59472   22.89607   25.95481   27.85175   29.83713   34.52006   37.18287   40.82307
  42.20610   45.50761   47.47907   47.72586   48.90680   53.45794   56.89322   57.94711
 kpt# 303, nband= 24, wtk=  1.00000, kpt=  0.2500  0.0395  0.2500 (reduced coord)
 -39.54710  -16.22608  -15.71646  -15.28299   12.18542   13.16665   14.15544   17.82275
  18.59914   22.72233   26.07933   27.97422   29.99444   34.41603   37.17568   40.84924
  42.33221   45.46009   47.65746   47.87789   48.59402   53.38886   56.92860   57.87746
 kpt# 304, nband= 24, wtk=  1.00000, kpt=  0.2500  0.0307  0.2500 (reduced coord)
 -39.54819  -16.22966  -15.70993  -15.27346   12.15886   13.15688   14.16100   17.74672
  18.60426   22.54681   26.20379   28.10146   30.15325   34.31813   37.17921   40.87414
  42.45114   45.33641   47.68680   48.25428   48.31258   53.29720   56.93358   57.78886
 kpt# 305, nband= 24, wtk=  1.00000, kpt=  0.2500  0.0219  0.2500 (reduced coord)
 -39.54929  -16.23171  -15.70353  -15.26562   12.13507   13.14827   14.16651   17.66798
  18.60992   22.36986   26.32776   28.23342   30.31367   34.22596   37.19260   40.89699
  42.56170   45.15450   47.79771   47.99160   48.67865   53.18274   56.89796   57.65741
 kpt# 306, nband= 24, wtk=  1.00000, kpt=  0.2500  0.0132  0.2500 (reduced coord)
 -39.55040  -16.23212  -15.69696  -15.25905   12.11398   13.14099   14.17235   17.58676
  18.61595   22.19196   26.45081   28.36990   30.47593   34.13940   37.21486   40.91736
  42.66298   44.93807   47.70734   47.96874   49.07463   53.04656   56.81814   57.48900
 kpt# 307, nband= 24, wtk=  1.00000, kpt=  0.2500  0.0044  0.2500 (reduced coord)
 -39.55152  -16.23161  -15.69057  -15.25421   12.09546   13.13505   14.17880   17.50326
  18.62207   22.01304   26.57251   28.51047   30.63992   34.05816   37.24467   40.93431
  42.75386   44.70665   47.43409   48.18236   49.46638   52.88915   56.69566   57.29308
 kpt# 308, nband= 24, wtk=  1.00000, kpt=  0.2500 -0.0044  0.2500 (reduced coord)
 -39.55264  -16.22961  -15.68406  -15.25086   12.07946   13.13055   14.18633   17.41776
  18.62807   21.83362   26.69273   28.65529   30.80572   33.98205   37.28055   40.94701
  42.83320   44.47458   47.17361   48.42660   49.85139   52.71222   56.53827   57.08207
 kpt# 309, nband= 24, wtk=  1.00000, kpt=  0.2500 -0.0132  0.2500 (reduced coord)
 -39.55376  -16.22628  -15.67755  -15.24902   12.06582   13.12758   14.19532   17.33050
  18.63366   21.65405   26.81127   28.80397   30.97317   33.91080   37.32077   40.95442
  42.89950   44.25241   46.92727   48.69345   50.22633   52.51764   56.35357   56.86561
 kpt# 310, nband= 24, wtk=  1.00000, kpt=  0.2500 -0.0219  0.2500 (reduced coord)
 -39.55488  -16.22147  -15.67095  -15.24873   12.05440   13.12620   14.20620   17.24174
  18.63848   21.47485   26.92804   28.95626   31.14190   33.84432   37.36339   40.95537
  42.95058   44.04887   46.69666   48.97713   50.58688   52.30818   56.14801   56.65216
 kpt# 311, nband= 24, wtk=  1.00000, kpt=  0.2500 -0.0307  0.2500 (reduced coord)
 -39.55599  -16.21575  -15.66465  -15.25007   12.04498   13.12642   14.21925   17.15171
  18.64213   21.29626   27.04296   29.11182   31.31166   33.78204   37.40644   40.94849
  42.98363   43.87176   46.48321   49.27215   50.92688   52.08740   55.92608   56.45143
 kpt# 312, nband= 24, wtk=  1.00000, kpt=  0.2500 -0.0395  0.2500 (reduced coord)
 -39.55709  -16.20851  -15.65827  -15.25277   12.03747   13.12830   14.23500   17.06081
  18.64415   21.11897   27.15626   29.27048   31.48180   33.72389   37.44796   40.93249
  42.99531   43.72883   46.28874   49.57213   51.23864   51.86152   55.69162   56.27360
 kpt# 313, nband= 24, wtk=  1.00000, kpt=  0.2500 -0.0482  0.2500 (reduced coord)
 -39.55817  -16.20001  -15.65198  -15.25721   12.03163   13.13186   14.25375   16.96926
  18.64396   20.94364   27.26795   29.43191   31.65134   33.66960   37.48590   40.90603
  42.98417   43.62480   46.11489   49.86590   51.51191   51.64169   55.44702   56.13043
 kpt# 314, nband= 24, wtk=  1.00000, kpt=  0.2500 -0.0570  0.2500 (reduced coord)
 -39.55924  -16.19028  -15.64579  -15.26285   12.02726   13.13710   14.27588   16.87738
  18.64088   20.77108   27.37828   29.59576   31.81942   33.61893   37.51891   40.86789
  42.95532   43.55796   45.96322   50.12822   51.45349   51.73452   55.19462   56.03529
 kpt# 315, nband= 24, wtk=  1.00000, kpt=  0.2500 -0.0658  0.2500 (reduced coord)
 -39.56029  -16.17936  -15.63971  -15.26992   12.02416   13.14402   14.30172   16.78546
  18.63406   20.60225   27.48740   29.76169   31.98462   33.57162   37.54581   40.81707
  42.92061   43.51859   45.83509   50.29791   51.35796   51.89404   54.93699   56.00148
 kpt# 316, nband= 24, wtk=  1.00000, kpt=  0.2500 -0.0746  0.2500 (reduced coord)
 -39.56132  -16.16729  -15.63378  -15.27838   12.02211   13.15261   14.33157   16.69382
  18.62248   20.43836   27.59551   29.92933   32.14536   33.52742   37.56628   40.75294
  42.89344   43.49485   45.73153   50.29343   51.43551   51.98117   54.67775   56.03888
 kpt# 317, nband= 24, wtk=  1.00000, kpt=  0.2500 -0.0833  0.2500 (reduced coord)
 -39.56232  -16.15424  -15.62841  -15.28882   12.02091   13.16278   14.36565   16.60266
  18.60479   20.28081   27.70271   30.09821   32.29961   33.48605   37.58059   40.67528
  42.88361   43.47723   45.65289   50.13864   51.65868   51.99333   54.42277   56.15027
 kpt# 318, nband= 24, wtk=  1.00000, kpt=  0.2500 -0.0921  0.2500 (reduced coord)
 -39.56329  -16.13947  -15.62252  -15.29947   12.02041   13.17458   14.40435   16.51256
  18.57963   20.13167   27.80936   30.26804   32.44593   33.44759   37.59092   40.58475
  42.89703   43.46048   45.59985   49.91549   51.93649   51.93772   54.18431   56.33041
 kpt# 319, nband= 24, wtk=  1.00000, kpt=  0.2500 -0.1009  0.2500 (reduced coord)
 -39.56422  -16.12424  -15.61712  -15.31181   12.02040   13.18782   14.44763   16.42372
  18.54511   19.99234   27.91544   30.43826   32.58136   33.41120   37.59921   40.48145
  42.93557   43.44053   45.57176   49.66593   51.82138   52.20678   53.98680   56.56796
 kpt# 320, nband= 24, wtk=  1.00000, kpt=  0.2500 -0.1096  0.2500 (reduced coord)
 -39.56512  -16.10807  -15.61193  -15.32531   12.02074   13.20244   14.49568   16.33648
  18.49945   19.86518   28.02103   30.60838   32.70379   33.37689   37.60874   40.36703
  42.99945   43.41529   45.56787   49.40853   51.66108   52.39824   53.88336   56.84992
 kpt# 321, nband= 24, wtk=  1.00000, kpt=  0.2500 -0.1184  0.2500 (reduced coord)
 -39.56598  -16.09103  -15.60697  -15.34003   12.02129   13.21832   14.54853   16.25122
  18.44105   19.75211   28.12610   30.77784   32.81090   33.34439   37.62298   40.24316
  43.08720   43.38326   45.58710   49.15229   51.46733   52.43626   53.94394   57.16426
 kpt# 322, nband= 24, wtk=  1.00000, kpt=  0.2500 -0.1272  0.2500 (reduced coord)
 -39.56680  -16.07318  -15.60215  -15.35549   12.02195   13.23531   14.60617   16.16831
  18.36892   19.65448   28.23054   30.94605   32.90083   33.31351   37.64571   40.11194
  43.19602   43.34404   45.62808   48.90305   51.24963   52.31503   54.17207   57.50103
 kpt# 323, nband= 24, wtk=  1.00000, kpt=  0.2500 -0.1360  0.2500 (reduced coord)
 -39.56757  -16.05465  -15.59768  -15.37198   12.02263   13.25321   14.66845   16.08812
  18.28305   19.57267   28.33412   31.11235   32.97180   33.28371   37.68001   39.97528
  43.28696   43.33275   45.68937   48.66518   51.01515   52.09760   54.50358   57.85245
 kpt# 324, nband= 24, wtk=  1.00000, kpt=  0.2500 -0.1447  0.2500 (reduced coord)
 -39.56830  -16.03552  -15.59348  -15.38927   12.02327   13.27181   14.73516   16.01107
  18.18462   19.50601   28.43647   31.27602   33.02311   33.25479   37.72825   39.83556
  43.23435   43.47121   45.76948   48.44265   50.76928   51.83345   54.88880   58.21240
 kpt# 325, nband= 24, wtk=  1.00000, kpt=  0.2500 -0.1535  0.2500 (reduced coord)
 -39.56898  -16.01556  -15.58948  -15.40690   12.02383   13.29089   14.80599   15.93760
  18.07589   19.45293   28.53712   31.43633   33.05509   33.22638   37.79174   39.69516
  43.16778   43.62634   45.86696   48.23930   50.51621   51.54697   55.30385   58.57747
 kpt# 326, nband= 24, wtk=  1.00000, kpt=  0.2500 -0.1623  0.2500 (reduced coord)
 -39.56961  -15.99572  -15.58606  -15.42546   12.02426   13.31012   14.88038   15.86812
  17.95935   19.41124   28.63531   31.59220   33.06845   33.19800   37.87033   39.55625
  43.09112   43.78956   45.98040   48.05845   50.25852   51.24898   55.73729   59.28142
 kpt# 327, nband= 24, wtk=  1.00000, kpt=  0.2500 -0.1711  0.2500 (reduced coord)
 -39.57018  -15.97573  -15.58275  -15.44441   12.02457   13.32922   14.95768   15.80312
  17.83809   19.37894   28.73033   31.74324   33.06537   33.16924   37.96256   39.42130
  43.00576   43.95643   46.10857   47.90389   49.99870   50.94670   56.18318   59.29787
 kpt# 328, nband= 24, wtk=  1.00000, kpt=  0.2500 -0.1798  0.2500 (reduced coord)
 -39.57070  -15.95560  -15.57964  -15.46328   12.02477   13.34786   15.03705   15.74307
  17.71511   19.35409   28.82115   31.88836   33.04884   33.13963   38.06629   39.29261
  42.91304   44.12231   46.25034   47.77904   49.73861   50.64433   56.63792   59.66636
 kpt# 329, nband= 24, wtk=  1.00000, kpt=  0.2500 -0.1886  0.2500 (reduced coord)
 -39.57116  -15.93584  -15.57698  -15.48207   12.02487   13.36562   15.11726   15.68846
  17.59327   19.33505   28.90655   32.02661   33.02204   33.10846   38.17766   39.17222
  42.81507   44.28220   46.40462   47.68705   49.47948   50.34528   57.09871   59.94245
 kpt# 330, nband= 24, wtk=  1.00000, kpt=  0.2500 -0.1974  0.2500 (reduced coord)
 -39.57156  -15.91669  -15.57465  -15.50037   12.02488   13.38213   15.19674   15.63980
  17.47555   19.32055   28.98518   32.15708   32.98868   33.07514   38.29219   39.06241
  42.71487   44.43103   46.57051   47.63045   49.22255   50.05308   57.56296   60.03572
 kpt# 331, nband= 24, wtk=  1.00000, kpt=  0.2500 -0.2061  0.2500 (reduced coord)
 -39.57191  -15.89865  -15.57279  -15.51808   12.02482   13.39699   15.27333   15.59756
  17.36511   19.30959   29.05549   32.27870   32.95241   33.03900   38.40451   38.96524
  42.61626   44.56378   46.74713   47.61040   48.96872   49.77157   58.02748   59.98254
 kpt# 332, nband= 24, wtk=  1.00000, kpt=  0.2500 -0.2149  0.2500 (reduced coord)
 -39.57219  -15.88198  -15.57077  -15.53431   12.02480   13.40982   15.34435   15.56230
  17.26549   19.30148   29.11599   32.39086   32.91687   32.99949   38.50868   38.88291
  42.52439   44.67668   46.93375   47.62586   48.71920   49.50646   58.48743   59.99560
 kpt# 333, nband= 24, wtk=  1.00000, kpt=  0.2500 -0.2237  0.2500 (reduced coord)
 -39.57241  -15.86777  -15.56950  -15.54809   12.02471   13.42023   15.40632   15.53434
  17.18075   19.29566   29.16511   32.49252   32.88540   32.95605   38.59892   38.81666
  42.44441   44.76587   47.12950   47.67164   48.47433   49.26552   58.93292   60.02963
 kpt# 334, nband= 24, wtk=  1.00000, kpt=  0.2500 -0.2325  0.2500 (reduced coord)
 -39.57257  -15.85664  -15.56842  -15.55881   12.02464   13.42792   15.45516   15.51407
  17.11539   19.29176   29.20140   32.58180   32.86083   32.90957   38.66891   38.76830
  42.38201   44.82993   47.33348   47.73582   48.23527   49.06200   59.33845   60.07567
 kpt# 335, nband= 24, wtk=  1.00000, kpt=  0.2500 -0.2412  0.2500 (reduced coord)
 -39.57266  -15.84936  -15.56754  -15.56496   12.02461   13.43267   15.48678   15.50182
  17.07389   19.28956   29.22370   32.65354   32.84543   32.86425   38.71368   38.73888
  42.34250   44.86841   47.54382   47.79643   48.00409   48.91828   59.63596   60.18399
 kpt# 336, nband= 24, wtk=  1.00000, kpt=  0.2500 -0.2500  0.2500 (reduced coord)
 -39.57269  -15.84691  -15.56736  -15.56736   12.02459   13.43426   15.49771   15.49771
  17.05959   19.28882   29.23122   32.68647   32.84004   32.84004   38.72895   38.72895
  42.32879   44.88117   47.71855   47.82234   47.82234   48.86464   59.73949   60.27903
 kpt# 337, nband= 24, wtk=  1.00000, kpt=  0.2500 -0.2412  0.2500 (reduced coord)
 -39.57266  -15.84936  -15.56754  -15.56496   12.02461   13.43267   15.48678   15.50182
  17.07389   19.28956   29.22370   32.65354   32.84543   32.86425   38.71368   38.73888
  42.34250   44.86841   47.54382   47.79643   48.00409   48.91828   59.63596   60.18399
 kpt# 338, nband= 24, wtk=  1.00000, kpt=  0.2500 -0.2325  0.2500 (reduced coord)
 -39.57257  -15.85664  -15.56842  -15.55881   12.02464   13.42792   15.45516   15.51407
  17.11539   19.29176   29.20140   32.58180   32.86083   32.90957   38.66891   38.76830
  42.38201   44.82993   47.33348   47.73582   48.23527   49.06200   59.33845   60.07567
 kpt# 339, nband= 24, wtk=  1.00000, kpt=  0.2500 -0.2237  0.2500 (reduced coord)
 -39.57241  -15.86777  -15.56950  -15.54809   12.02471   13.42023   15.40632   15.53434
  17.18075   19.29566   29.16511   32.49252   32.88540   32.95605   38.59892   38.81666
  42.44441   44.76587   47.12950   47.67164   48.47433   49.26552   58.93292   60.02963
 kpt# 340, nband= 24, wtk=  1.00000, kpt=  0.2500 -0.2149  0.2500 (reduced coord)
 -39.57219  -15.88198  -15.57077  -15.53431   12.02480   13.40982   15.34435   15.56230
  17.26549   19.30148   29.11599   32.39086   32.91687   32.99949   38.50868   38.88291
  42.52439   44.67668   46.93375   47.62586   48.71920   49.50646   58.48743   59.99560
 kpt# 341, nband= 24, wtk=  1.00000, kpt=  0.2500 -0.2061  0.2500 (reduced coord)
 -39.57191  -15.89865  -15.57279  -15.51808   12.02482   13.39699   15.27333   15.59756
  17.36511   19.30959   29.05549   32.27870   32.95241   33.03900   38.40451   38.96524
  42.61626   44.56378   46.74713   47.61040   48.96872   49.77157   58.02748   59.98254
 kpt# 342, nband= 24, wtk=  1.00000, kpt=  0.2500 -0.1974  0.2500 (reduced coord)
 -39.57156  -15.91669  -15.57465  -15.50037   12.02488   13.38213   15.19674   15.63980
  17.47555   19.32055   28.98518   32.15708   32.98868   33.07514   38.29219   39.06241
  42.71487   44.43103   46.57051   47.63045   49.22255   50.05308   57.56296   60.03572
 kpt# 343, nband= 24, wtk=  1.00000, kpt=  0.2500 -0.1886  0.2500 (reduced coord)
 -39.57116  -15.93584  -15.57698  -15.48207   12.02487   13.36562   15.11726   15.68846
  17.59327   19.33505   28.90655   32.02661   33.02204   33.10846   38.17766   39.17222
  42.81507   44.28220   46.40462   47.68705   49.47948   50.34528   57.09871   59.94245
 kpt# 344, nband= 24, wtk=  1.00000, kpt=  0.2500 -0.1798  0.2500 (reduced coord)
 -39.57070  -15.95560  -15.57964  -15.46328   12.02477   13.34786   15.03705   15.74307
  17.71511   19.35409   28.82115   31.88836   33.04884   33.13963   38.06629   39.29261
  42.91304   44.12231   46.25034   47.77904   49.73861   50.64433   56.63792   59.66636
 kpt# 345, nband= 24, wtk=  1.00000, kpt=  0.2500 -0.1711  0.2500 (reduced coord)
 -39.57018  -15.97573  -15.58275  -15.44441   12.02457   13.32922   14.95768   15.80312
  17.83809   19.37894   28.73033   31.74324   33.06537   33.16924   37.96256   39.42130
  43.00576   43.95643   46.10857   47.90389   49.99870   50.94670   56.18318   59.29787
 kpt# 346, nband= 24, wtk=  1.00000, kpt=  0.2500 -0.1623  0.2500 (reduced coord)
 -39.56961  -15.99572  -15.58606  -15.42546   12.02426   13.31012   14.88038   15.86812
  17.95935   19.41124   28.63531   31.59220   33.06845   33.19800   37.87033   39.55625
  43.09112   43.78956   45.98040   48.05845   50.25852   51.24898   55.73729   59.28142
 kpt# 347, nband= 24, wtk=  1.00000, kpt=  0.2500 -0.1535  0.2500 (reduced coord)
 -39.56898  -16.01556  -15.58948  -15.40690   12.02383   13.29089   14.80599   15.93760
  18.07589   19.45293   28.53712   31.43633   33.05509   33.22638   37.79174   39.69516
  43.16778   43.62634   45.86696   48.23930   50.51621   51.54697   55.30385   58.57747
 kpt# 348, nband= 24, wtk=  1.00000, kpt=  0.2500 -0.1447  0.2500 (reduced coord)
 -39.56830  -16.03552  -15.59348  -15.38927   12.02327   13.27181   14.73516   16.01107
  18.18462   19.50601   28.43647   31.27602   33.02311   33.25479   37.72825   39.83556
  43.23435   43.47121   45.76948   48.44265   50.76928   51.83345   54.88880   58.21240
 kpt# 349, nband= 24, wtk=  1.00000, kpt=  0.2500 -0.1360  0.2500 (reduced coord)
 -39.56757  -16.05465  -15.59768  -15.37198   12.02263   13.25321   14.66845   16.08812
  18.28305   19.57267   28.33412   31.11235   32.97180   33.28371   37.68001   39.97528
  43.28696   43.33275   45.68937   48.66518   51.01515   52.09760   54.50358   57.85245
 kpt# 350, nband= 24, wtk=  1.00000, kpt=  0.2500 -0.1272  0.2500 (reduced coord)
 -39.56680  -16.07318  -15.60215  -15.35549   12.02195   13.23531   14.60617   16.16831
  18.36892   19.65448   28.23054   30.94605   32.90083   33.31351   37.64571   40.11194
  43.19602   43.34404   45.62808   48.90305   51.24963   52.31503   54.17207   57.50103
 kpt# 351, nband= 24, wtk=  1.00000, kpt=  0.2500 -0.1184  0.2500 (reduced coord)
 -39.56598  -16.09103  -15.60697  -15.34003   12.02129   13.21832   14.54853   16.25122
  18.44105   19.75211   28.12610   30.77784   32.81090   33.34439   37.62298   40.24316
  43.08720   43.38326   45.58710   49.15229   51.46733   52.43626   53.94394   57.16426
 kpt# 352, nband= 24, wtk=  1.00000, kpt=  0.2500 -0.1096  0.2500 (reduced coord)
 -39.56512  -16.10807  -15.61193  -15.32531   12.02074   13.20244   14.49568   16.33648
  18.49945   19.86518   28.02103   30.60838   32.70379   33.37689   37.60874   40.36703
  42.99945   43.41529   45.56787   49.40853   51.66108   52.39824   53.88336   56.84992
 kpt# 353, nband= 24, wtk=  1.00000, kpt=  0.2500 -0.1009  0.2500 (reduced coord)
 -39.56422  -16.12424  -15.61712  -15.31181   12.02040   13.18782   14.44763   16.42372
  18.54511   19.99234   27.91544   30.43826   32.58136   33.41120   37.59921   40.48145
  42.93557   43.44053   45.57176   49.66593   51.82138   52.20678   53.98680   56.56796
 kpt# 354, nband= 24, wtk=  1.00000, kpt=  0.2500 -0.0921  0.2500 (reduced coord)
 -39.56329  -16.13947  -15.62252  -15.29947   12.02041   13.17458   14.40435   16.51256
  18.57963   20.13167   27.80936   30.26804   32.44593   33.44759   37.59092   40.58475
  42.89703   43.46048   45.59985   49.91549   51.93649   51.93772   54.18431   56.33041
 kpt# 355, nband= 24, wtk=  1.00000, kpt=  0.2500 -0.0833  0.2500 (reduced coord)
 -39.56232  -16.15424  -15.62841  -15.28882   12.02091   13.16278   14.36565   16.60266
  18.60479   20.28081   27.70271   30.09821   32.29961   33.48605   37.58059   40.67528
  42.88361   43.47723   45.65289   50.13864   51.65868   51.99333   54.42277   56.15027
 kpt# 356, nband= 24, wtk=  1.00000, kpt=  0.2500 -0.0746  0.2500 (reduced coord)
 -39.56132  -16.16729  -15.63378  -15.27838   12.02211   13.15261   14.33157   16.69382
  18.62248   20.43836   27.59551   29.92933   32.14536   33.52742   37.56628   40.75294
  42.89344   43.49485   45.73153   50.29343   51.43551   51.98117   54.67775   56.03888
 kpt# 357, nband= 24, wtk=  1.00000, kpt=  0.2500 -0.0658  0.2500 (reduced coord)
 -39.56029  -16.17936  -15.63971  -15.26992   12.02416   13.14402   14.30172   16.78546
  18.63406   20.60225   27.48740   29.76169   31.98462   33.57162   37.54581   40.81707
  42.92061   43.51859   45.83509   50.29791   51.35796   51.89404   54.93699   56.00148
 kpt# 358, nband= 24, wtk=  1.00000, kpt=  0.2500 -0.0570  0.2500 (reduced coord)
 -39.55924  -16.19028  -15.64579  -15.26285   12.02726   13.13710   14.27588   16.87738
  18.64088   20.77108   27.37828   29.59576   31.81942   33.61893   37.51891   40.86789
  42.95532   43.55796   45.96322   50.12822   51.45349   51.73452   55.19462   56.03529
 kpt# 359, nband= 24, wtk=  1.00000, kpt=  0.2500 -0.0482  0.2500 (reduced coord)
 -39.55817  -16.20001  -15.65198  -15.25721   12.03163   13.13186   14.25375   16.96926
  18.64396   20.94364   27.26795   29.43191   31.65134   33.66960   37.48590   40.90603
  42.98417   43.62480   46.11489   49.86590   51.51191   51.64169   55.44702   56.13043
 kpt# 360, nband= 24, wtk=  1.00000, kpt=  0.2500 -0.0395  0.2500 (reduced coord)
 -39.55709  -16.20851  -15.65827  -15.25277   12.03747   13.12830   14.23500   17.06081
  18.64415   21.11897   27.15626   29.27048   31.48180   33.72389   37.44796   40.93249
  42.99531   43.72883   46.28874   49.57213   51.23864   51.86152   55.69162   56.27360
 kpt# 361, nband= 24, wtk=  1.00000, kpt=  0.2500 -0.0307  0.2500 (reduced coord)
 -39.55599  -16.21575  -15.66465  -15.25007   12.04498   13.12642   14.21925   17.15171
  18.64213   21.29626   27.04296   29.11182   31.31166   33.78204   37.40644   40.94849
  42.98363   43.87176   46.48321   49.27215   50.92688   52.08740   55.92608   56.45143
 kpt# 362, nband= 24, wtk=  1.00000, kpt=  0.2500 -0.0219  0.2500 (reduced coord)
 -39.55488  -16.22147  -15.67095  -15.24873   12.05440   13.12620   14.20620   17.24174
  18.63848   21.47485   26.92804   28.95626   31.14190   33.84432   37.36339   40.95537
  42.95058   44.04887   46.69666   48.97713   50.58688   52.30818   56.14801   56.65216
 kpt# 363, nband= 24, wtk=  1.00000, kpt=  0.2500 -0.0132  0.2500 (reduced coord)
 -39.55376  -16.22628  -15.67755  -15.24902   12.06582   13.12758   14.19532   17.33050
  18.63366   21.65405   26.81127   28.80397   30.97317   33.91080   37.32077   40.95442
  42.89950   44.25241   46.92727   48.69345   50.22633   52.51764   56.35357   56.86561
 kpt# 364, nband= 24, wtk=  1.00000, kpt=  0.2500 -0.0044  0.2500 (reduced coord)
 -39.55264  -16.22961  -15.68406  -15.25086   12.07946   13.13055   14.18633   17.41776
  18.62807   21.83362   26.69273   28.65529   30.80572   33.98205   37.28055   40.94701
  42.83320   44.47458   47.17361   48.42660   49.85139   52.71222   56.53827   57.08207
 kpt# 365, nband= 24, wtk=  1.00000, kpt=  0.2500  0.0044  0.2500 (reduced coord)
 -39.55152  -16.23161  -15.69057  -15.25421   12.09546   13.13505   14.17880   17.50326
  18.62207   22.01304   26.57251   28.51047   30.63992   34.05816   37.24467   40.93431
  42.75386   44.70665   47.43409   48.18236   49.46638   52.88915   56.69566   57.29308
 kpt# 366, nband= 24, wtk=  1.00000, kpt=  0.2500  0.0132  0.2500 (reduced coord)
 -39.55040  -16.23212  -15.69696  -15.25905   12.11398   13.14099   14.17235   17.58676
  18.61595   22.19196   26.45081   28.36990   30.47593   34.13940   37.21486   40.91736
  42.66298   44.93807   47.70734   47.96874   49.07463   53.04656   56.81814   57.48900
 kpt# 367, nband= 24, wtk=  1.00000, kpt=  0.2500  0.0219  0.2500 (reduced coord)
 -39.54929  -16.23171  -15.70353  -15.26562   12.13507   13.14827   14.16651   17.66798
  18.60992   22.36986   26.32776   28.23342   30.31367   34.22596   37.19260   40.89699
  42.56170   45.15450   47.79771   47.99160   48.67865   53.18274   56.89796   57.65741
 kpt# 368, nband= 24, wtk=  1.00000, kpt=  0.2500  0.0307  0.2500 (reduced coord)
 -39.54819  -16.22966  -15.70993  -15.27346   12.15886   13.15688   14.16100   17.74672
  18.60426   22.54681   26.20379   28.10146   30.15325   34.31813   37.17921   40.87414
  42.45114   45.33641   47.68680   48.25428   48.31258   53.29720   56.93358   57.78886
 kpt# 369, nband= 24, wtk=  1.00000, kpt=  0.2500  0.0395  0.2500 (reduced coord)
 -39.54710  -16.22608  -15.71646  -15.28299   12.18542   13.16665   14.15544   17.82275
  18.59914   22.72233   26.07933   27.97422   29.99444   34.41603   37.17568   40.84924
  42.33221   45.46009   47.65746   47.87789   48.59402   53.38886   56.92860   57.87746
 kpt# 370, nband= 24, wtk=  1.00000, kpt=  0.2500  0.0482  0.2500 (reduced coord)
 -39.54603  -16.22151  -15.72272  -15.29377   12.21474   13.17753   14.14940   17.89590
  18.59472   22.89607   25.95481   27.85175   29.83713   34.52006   37.18287   40.82307
  42.20610   45.50761   47.47907   47.72586   48.90680   53.45794   56.89322   57.94711
 kpt# 371, nband= 24, wtk=  1.00000, kpt=  0.2500  0.0570  0.2500 (reduced coord)
 -39.54498  -16.21543  -15.72884  -15.30588   12.24686   13.18940   14.14259   17.96598
  18.59114   23.06802   25.83086   27.73427   29.68120   34.63035   37.20132   40.79591
  42.07400   45.47822   47.08129   47.89061   49.22775   53.50435   56.84037   57.95019
 kpt# 372, nband= 24, wtk=  1.00000, kpt=  0.2500  0.0658  0.2500 (reduced coord)
 -39.54395  -16.20804  -15.73479  -15.31924   12.28175   13.20214   14.13468   18.03288
  18.58849   23.23771   25.70812   27.62191   29.52659   34.74711   37.23134   40.76804
  41.93719   45.38775   46.68568   48.13384   49.55588   53.52864   56.78108   57.94958
 kpt# 373, nband= 24, wtk=  1.00000, kpt=  0.2500  0.0746  0.2500 (reduced coord)
 -39.54295  -16.19947  -15.74074  -15.33400   12.31940   13.21556   14.12535   18.09640
  18.58685   23.40478   25.58738   27.51474   29.37288   34.87050   37.27310   40.73966
  41.79696   45.25583   46.29301   48.43385   49.89036   53.53192   56.72399   57.94279
 kpt# 374, nband= 24, wtk=  1.00000, kpt=  0.2500  0.0833  0.2500 (reduced coord)
 -39.54197  -16.18916  -15.74638  -15.34985   12.35975   13.22964   14.11447   18.15649
  18.58632   23.56889   25.46958   27.41293   29.22028   35.00072   37.32648   40.71087
  41.65492   45.09784   45.90424   48.77331   50.23085   53.51618   56.67510   57.93009
 kpt# 375, nband= 24, wtk=  1.00000, kpt=  0.2500  0.0921  0.2500 (reduced coord)
 -39.54103  -16.17812  -15.75211  -15.36740   12.40267   13.24416   14.10154   18.21297
  18.58679   23.72912   25.35576   27.31642   29.06838   35.13776   37.39112   40.68145
  41.51257   44.92334   45.51992   49.14010   50.57627   53.48373   56.63729   57.91696
 kpt# 376, nband= 24, wtk=  1.00000, kpt=  0.2500  0.1009  0.2500 (reduced coord)
 -39.54013  -16.16561  -15.75741  -15.38577   12.44813   13.25905   14.08651   18.26593
  18.58831   23.88484   25.24755   27.22537   28.91737   35.28206   37.46655   40.65166
  41.37165   44.73832   45.14095   49.52653   50.92660   53.43812   56.61280   57.90309
 kpt# 377, nband= 24, wtk=  1.00000, kpt=  0.2500  0.1096  0.2500 (reduced coord)
 -39.53926  -16.15189  -15.76250  -15.40523   12.49598   13.27413   14.06913   18.31527
  18.59084   24.03404   25.14722   27.13978   28.76719   35.43358   37.55202   40.62107
  41.23387   44.54608   44.76804   49.92659   51.28102   53.38309   56.60181   57.89137
 kpt# 378, nband= 24, wtk=  1.00000, kpt=  0.2500  0.1184  0.2500 (reduced coord)
 -39.53843  -16.13712  -15.76746  -15.42599   12.54604   13.28922   14.04924   18.36099
  18.59429   24.17318   25.05874   27.05968   28.61785   35.59240   37.64656   40.58928
  41.10105   44.34846   44.40199   50.33514   51.63881   53.32298   56.60372   57.88231
 kpt# 379, nband= 24, wtk=  1.00000, kpt=  0.2500  0.1272  0.2500 (reduced coord)
 -39.53764  -16.12097  -15.77208  -15.44766   12.59818   13.30426   14.02679   18.40312
  18.59860   24.29514   24.98988   26.98507   28.46942   35.75858   37.74897   40.55570
  40.97520   44.04402   44.14679   50.74721   51.99956   53.26395   56.61776   57.87641
 kpt# 380, nband= 24, wtk=  1.00000, kpt=  0.2500  0.1360  0.2500 (reduced coord)
 -39.53689  -16.10397  -15.77647  -15.47005   12.65229   13.31903   14.00151   18.44172
  18.60360   24.38581   24.95518   26.91593   28.32192   35.93218   37.85773   40.51945
  40.85839   43.69529   43.94172   51.15568   52.36238   53.21370   56.64291   57.87409
 kpt# 381, nband= 24, wtk=  1.00000, kpt=  0.2500  0.1447  0.2500 (reduced coord)
 -39.53620  -16.08568  -15.78059  -15.49350   12.70806   13.33342   13.97356   18.47682
  18.60920   24.42738   24.97290   26.85227   28.17540   36.11317   37.97092   40.47935
  40.75293   43.35736   43.73375   51.54816   52.72643   53.18506   56.67786   57.87574
 kpt# 382, nband= 24, wtk=  1.00000, kpt=  0.2500  0.1535  0.2500 (reduced coord)
 -39.53555  -16.06668  -15.78440  -15.51755   12.76538   13.34729   13.94265   18.50854
  18.61524   24.41893   25.04441   26.79399   28.02991   36.30153   38.08631   40.43368
  40.66141   43.03241   43.52333   51.90075   53.09063   53.20251   56.72196   57.88166
 kpt# 383, nband= 24, wtk=  1.00000, kpt=  0.2500  0.1623  0.2500 (reduced coord)
 -39.53495  -16.04654  -15.78792  -15.54206   12.82408   13.36050   13.90889   18.53697
  18.62156   24.38031   25.15057   26.74106   27.88550   36.49717   38.20137   40.38004
  40.58671   42.72317   43.31086   52.17098   53.30819   53.45363   56.77468   57.89228
 kpt# 384, nband= 24, wtk=  1.00000, kpt=  0.2500  0.1711  0.2500 (reduced coord)
 -39.53440  -16.02519  -15.79110  -15.56708   12.88388   13.37290   13.87242   18.56222
  18.62800   24.32949   25.27370   26.69345   27.74220   36.69997   38.31282   40.31517
  40.53204   42.43328   43.09682   52.32353   53.53633   53.81370   56.83590   57.90817
 kpt# 385, nband= 24, wtk=  1.00000, kpt=  0.2500  0.1798  0.2500 (reduced coord)
 -39.53391  -16.00330  -15.79400  -15.59265   12.94453   13.38438   13.83302   18.58438
  18.63434   24.27603   25.40464   26.65106   27.59997   36.90972   38.41713   40.23488
  40.50080   42.16732   42.88172   52.37910   53.86402   54.16830   56.90625   57.93034
 kpt# 386, nband= 24, wtk=  1.00000, kpt=  0.2500  0.1886  0.2500 (reduced coord)
 -39.53347  -15.98061  -15.79681  -15.61865   13.00580   13.39478   13.79089   18.60358
  18.64041   24.22461   25.53911   26.61376   27.45877   37.12617   38.51078   40.13423
  40.49624   41.93058   42.66620   52.38375   54.24131   54.51406   56.98765   57.95912
 kpt# 387, nband= 24, wtk=  1.00000, kpt=  0.2500  0.1974  0.2500 (reduced coord)
 -39.53308  -15.95720  -15.79905  -15.64496   13.06745   13.40406   13.74614   18.61995
  18.64608   24.17765   25.67518   26.58167   27.31863   37.34897   38.59082   40.00877
  40.52095   41.72822   42.45113   52.36704   54.63238   54.84663   57.08423   57.99740
 kpt# 388, nband= 24, wtk=  1.00000, kpt=  0.2500  0.2061  0.2500 (reduced coord)
 -39.53276  -15.93312  -15.80096  -15.67151   13.12922   13.41208   13.69889   18.63359
  18.65116   24.13652   25.81180   26.55463   27.17943   37.57764   38.65544   39.85570
  40.57608   41.56355   42.23742   52.34315   55.01269   55.15936   57.20306   58.04717
 kpt# 389, nband= 24, wtk=  1.00000, kpt=  0.2500  0.2149  0.2500 (reduced coord)
 -39.53249  -15.90847  -15.80259  -15.69838   13.19083   13.41876   13.64928   18.64459
  18.65552   24.10206   25.94847   26.53248   27.04106   37.81153   38.70444   39.67554
  40.66099   41.43673   42.02618   52.31888   55.35994   55.44327   57.35517   58.11269
 kpt# 390, nband= 24, wtk=  1.00000, kpt=  0.2500  0.2237  0.2500 (reduced coord)
 -39.53228  -15.88330  -15.80381  -15.72540   13.25203   13.42404   13.59748   18.65306
  18.65900   24.07481   26.08502   26.51539   26.90342   38.04987   38.73912   39.47211
  40.77323   41.34493   41.81876   52.29774   55.65084   55.68660   57.55447   58.20531
 kpt# 391, nband= 24, wtk=  1.00000, kpt=  0.2500  0.2325  0.2500 (reduced coord)
 -39.53213  -15.85800  -15.80519  -15.75236   13.31260   13.42773   13.54362   18.65897
  18.66156   24.05512   26.22118   26.50307   26.76630   38.29148   38.76160   39.25099
  40.90929   41.28359   41.61662   52.28159   55.86514   55.87454   57.81070   58.29766
 kpt# 392, nband= 24, wtk=  1.00000, kpt=  0.2500  0.2412  0.2500 (reduced coord)
 -39.53204  -15.83242  -15.80589  -15.77949   13.37220   13.43000   13.48798   18.66246
  18.66312   24.04323   26.35706   26.49573   26.62966   38.53489   38.77403   39.01798
  41.06516   41.24857   41.42204   52.27151   55.99326   55.99418   58.11600   58.42164
 kpt# 393, nband= 24, wtk=  1.00000, kpt=  0.2500  0.2500  0.2500 (reduced coord)
 -39.53201  -15.80607  -15.80607  -15.80607   13.43077   13.43077   13.43077   18.66365
  18.66365   24.03925   26.49330   26.49330   26.49330   38.77801   38.77801   38.77801
  41.23727   41.23727   41.23727   52.26812   56.03554   56.03554   58.43467   58.43488
 kpt# 394, nband= 24, wtk=  1.00000, kpt=  0.2391  0.2536  0.2536 (reduced coord)
 -39.53204  -15.82141  -15.82141  -15.77498   13.36106   13.46457   13.46457   18.66276
  18.66276   24.04317   26.41443   26.41443   26.65385   38.63214   38.63214   39.06263
  41.14495   41.14495   41.44596   52.27149   55.99840   55.99840   58.08718   58.52919
 kpt# 395, nband= 24, wtk=  1.00000, kpt=  0.2283  0.2572  0.2572 (reduced coord)
 -39.53211  -15.83616  -15.83616  -15.74281   13.28813   13.49813   13.49813   18.66018
  18.66018   24.05430   26.33750   26.33750   26.81749   38.47771   38.47771   39.35081
  41.07696   41.07696   41.65278   52.28104   55.90713   55.90713   57.74732   58.47622
 kpt# 396, nband= 24, wtk=  1.00000, kpt=  0.2174  0.2609  0.2609 (reduced coord)
 -39.53222  -15.85095  -15.85095  -15.71148   13.21246   13.53116   13.53116   18.65567
  18.65567   24.07164   26.26221   26.26221   26.98476   38.31536   38.31536   39.64248
  41.03188   41.03188   41.85599   52.29525   55.78216   55.78216   57.41856   58.36388
 kpt# 397, nband= 24, wtk=  1.00000, kpt=  0.2065  0.2645  0.2645 (reduced coord)
 -39.53234  -15.86542  -15.86542  -15.68023   13.13521   13.56343   13.56343   18.64931
  18.64931   24.09423   26.18923   26.18923   27.15626   38.14621   38.14621   39.93761
  41.00873   41.00873   42.05390   52.31203   55.63723   55.63723   57.10425   58.23264
 kpt# 398, nband= 24, wtk=  1.00000, kpt=  0.1957  0.2681  0.2681 (reduced coord)
 -39.53246  -15.87957  -15.87957  -15.64922   13.05729   13.59466   13.59466   18.64109
  18.64109   24.12115   26.11891   26.11891   27.33256   37.97154   37.97154   40.23614
  41.00605   41.00605   42.24486   52.32821   55.48035   55.48035   56.80849   58.09555
 kpt# 399, nband= 24, wtk=  1.00000, kpt=  0.1848  0.2717  0.2717 (reduced coord)
 -39.53257  -15.89266  -15.89266  -15.61847   12.97959   13.62474   13.62474   18.63104
  18.63104   24.15151   26.05189   26.05189   27.51428   37.79263   37.79263   40.53806
  41.02247   41.02247   42.42769   52.33948   55.31757   55.31757   56.53654   57.95739
 kpt# 400, nband= 24, wtk=  1.00000, kpt=  0.1739  0.2754  0.2754 (reduced coord)
 -39.53265  -15.90610  -15.90610  -15.58836   12.90295   13.65308   13.65308   18.61906
  18.61906   24.18453   25.98805   25.98805   27.70157   37.61065   37.61065   40.84320
  41.05628   41.05628   42.60006   52.33961   55.15045   55.15045   56.29481   57.81975
 kpt# 401, nband= 24, wtk=  1.00000, kpt=  0.1630  0.2790  0.2790 (reduced coord)
 -39.53269  -15.91915  -15.91915  -15.55892   12.82819   13.67955   13.67955   18.60523
  18.60523   24.21949   25.92800   25.92800   27.89490   37.42668   37.42668   41.10626
  41.10626   41.15153   42.76105   52.32146   54.98238   54.98238   56.09093   57.68357
 kpt# 402, nband= 24, wtk=  1.00000, kpt=  0.1522  0.2826  0.2826 (reduced coord)
 -39.53267  -15.93179  -15.93179  -15.53029   12.75608   13.70385   13.70385   18.58960
  18.58960   24.25581   25.87213   25.87213   28.09456   37.24166   37.24166   41.17120
  41.17120   41.46299   42.90947   52.27698   54.81520   54.81520   55.93293   57.54909
 kpt# 403, nband= 24, wtk=  1.00000, kpt=  0.1413  0.2862  0.2862 (reduced coord)
 -39.53258  -15.94403  -15.94403  -15.50261   12.68734   13.72571   13.72571   18.57226
  18.57226   24.29294   25.82076   25.82076   28.30072   37.05638   37.05638   41.24998
  41.24998   41.77748   43.04435   52.19875   54.65034   54.65034   55.82781   57.41638
 kpt# 404, nband= 24, wtk=  1.00000, kpt=  0.1304  0.2899  0.2899 (reduced coord)
 -39.53241  -15.95583  -15.95583  -15.47601   12.62264   13.74482   13.74482   18.55332
  18.55332   24.33048   25.77420   25.77420   28.51350   36.87152   36.87152   41.34164
  41.34164   42.09492   43.16490   52.08175   54.48892   54.48892   55.77977   57.28539
 kpt# 405, nband= 24, wtk=  1.00000, kpt=  0.1196  0.2935  0.2935 (reduced coord)
 -39.53214  -15.96718  -15.96718  -15.44990   12.56278   13.76089   13.76089   18.53293
  18.53293   24.36818   25.73271   25.73271   28.73294   36.68766   36.68766   41.44529
  41.44529   42.41521   43.27081   51.92581   54.33187   54.33187   55.78916   57.15604
 kpt# 406, nband= 24, wtk=  1.00000, kpt=  0.1087  0.2971  0.2971 (reduced coord)
 -39.53177  -15.97808  -15.97808  -15.42590   12.50800   13.77363   13.77363   18.51127
  18.51127   24.40557   25.69649   25.69649   28.95899   36.50528   36.50528   41.56014
  41.56014   42.73823   43.36129   51.73081   54.17993   54.17993   55.85115   57.02816
 kpt# 407, nband= 24, wtk=  1.00000, kpt=  0.0978  0.3007  0.3007 (reduced coord)
 -39.53128  -15.98842  -15.98842  -15.40280   12.45911   13.78276   13.78276   18.48862
  18.48862   24.44261   25.66577   25.66577   29.19156   36.32498   36.32498   41.68546
  41.68546   43.06388   43.43650   51.50304   54.03377   54.03377   55.95918   56.90183
 kpt# 408, nband= 24, wtk=  1.00000, kpt=  0.0870  0.3043  0.3043 (reduced coord)
 -39.53066  -15.99851  -15.99851  -15.38198   12.41643   13.78792   13.78792   18.46514
  18.46514   24.47905   25.64047   25.64047   29.43043   36.14685   36.14685   41.82052
  41.82052   43.39200   43.49642   51.24725   53.89382   53.89382   56.10367   56.77640
 kpt# 409, nband= 24, wtk=  1.00000, kpt=  0.0761  0.3080  0.3080 (reduced coord)
 -39.52991  -16.00801  -16.00801  -15.36271   12.38051   13.78896   13.78896   18.44122
  18.44122   24.51485   25.62067   25.62067   29.67546   35.97141   35.97141   41.96474
  41.96474   43.54134   43.72248   50.96919   53.76054   53.76054   56.27905   56.65249
 kpt# 410, nband= 24, wtk=  1.00000, kpt=  0.0652  0.3116  0.3116 (reduced coord)
 -39.52901  -16.01674  -16.01674  -15.34463   12.35180   13.78563   13.78563   18.41727
  18.41727   24.55001   25.60644   25.60644   29.92641   35.79929   35.79929   42.11760
  42.11760   43.57165   44.05515   50.67359   53.63442   53.63442   56.48045   56.53005
 kpt# 411, nband= 24, wtk=  1.00000, kpt=  0.0543  0.3152  0.3152 (reduced coord)
 -39.52796  -16.02526  -16.02526  -15.32900   12.33060   13.77757   13.77757   18.39350
  18.39350   24.58442   25.59735   25.59735   30.18288   35.63029   35.63029   42.27833
  42.27833   43.58787   44.38983   50.36367   53.51538   53.51538   56.40864   56.42925
 kpt# 412, nband= 24, wtk=  1.00000, kpt=  0.0435  0.3188  0.3188 (reduced coord)
 -39.52676  -16.03329  -16.03329  -15.31530   12.31728   13.76462   13.76462   18.37040
  18.37040   24.61814   25.59329   25.59329   30.44457   35.46503   35.46503   42.44647
  42.44647   43.59060   44.72633   50.04232   53.40375   53.40375   56.28859   56.29229
 kpt# 413, nband= 24, wtk=  1.00000, kpt=  0.0326  0.3225  0.3225 (reduced coord)
 -39.52539  -16.04112  -16.04112  -15.30375   12.31213   13.74652   13.74652   18.34829
  18.34829   24.65117   25.59393   25.59393   30.71109   35.30385   35.30385   42.62146
  42.62146   43.58053   45.06443   49.71147   53.29948   53.29948   56.16975   56.18094
 kpt# 414, nband= 24, wtk=  1.00000, kpt=  0.0217  0.3261  0.3261 (reduced coord)
 -39.52385  -16.04815  -16.04815  -15.29410   12.31544   13.72330   13.72330   18.32772
  18.32772   24.68354   25.59896   25.59896   30.98203   35.14716   35.14716   42.80282
  42.80282   43.55847   45.40394   49.37273   53.20279   53.20279   56.05303   56.05518
 kpt# 415, nband= 24, wtk=  1.00000, kpt=  0.0109  0.3297  0.3297 (reduced coord)
 -39.52214  -16.05474  -16.05474  -15.28672   12.32745   13.69477   13.69477   18.30898
  18.30898   24.71533   25.60784   25.60784   31.25670   34.99532   34.99532   42.99000
  42.99000   43.52512   45.74458   49.02732   53.11332   53.11332   55.93843   55.93847
 kpt# 416, nband= 24, wtk=  1.00000, kpt=  0.0000  0.3333  0.3333 (reduced coord)
 -39.52026  -16.06078  -16.06078  -15.28129   12.34831   13.66086   13.66086   18.29256
  18.29256   24.74650   25.62009   25.62009   31.53503   34.84876   34.84876   43.18251
  43.18251   43.48156   46.08610   48.67555   53.03110   53.03110   55.82647   55.82648
 kpt# 417, nband= 24, wtk=  1.00000, kpt= -0.0109  0.3370  0.3370 (reduced coord)
 -39.51820  -16.06632  -16.06632  -15.27801   12.37822   13.62156   13.62156   18.27877
  18.27877   24.77713   25.63509   25.63509   31.81623   34.70789   34.70789   43.37984
  43.37984   43.42858   46.42817   48.31824   52.95563   52.95563   55.71774   55.71774
 kpt# 418, nband= 24, wtk=  1.00000, kpt= -0.0217  0.3406  0.3406 (reduced coord)
 -39.51596  -16.07133  -16.07133  -15.27658   12.41733   13.57693   13.57693   18.26796
  18.26796   24.80729   25.65221   25.65221   32.09972   34.57324   34.57324   43.36718
  43.58152   43.58152   46.77046   47.95621   52.88641   52.88641   55.61310   55.61311
 kpt# 419, nband= 24, wtk=  1.00000, kpt= -0.0326  0.3442  0.3442 (reduced coord)
 -39.51355  -16.07609  -16.07609  -15.27801   12.46571   13.52701   13.52701   18.26028
  18.26028   24.83689   25.67063   25.67063   32.38458   34.44512   34.44512   43.29822
  43.78702   43.78702   47.11261   47.58916   52.82251   52.82251   55.51310   55.51311
 kpt# 420, nband= 24, wtk=  1.00000, kpt= -0.0435  0.3478  0.3478 (reduced coord)
 -39.51097  -16.07989  -16.07989  -15.28100   12.52346   13.47212   13.47212   18.25621
  18.25621   24.86600   25.68981   25.68981   32.67047   34.32425   34.32425   43.22288
  43.99607   43.99607   47.21794   47.45428   52.76382   52.76382   55.41952   55.41952
 kpt# 421, nband= 24, wtk=  1.00000, kpt= -0.0543  0.3514  0.3514 (reduced coord)
 -39.50822  -16.08353  -16.08353  -15.28662   12.59062   13.41223   13.41223   18.25585
  18.25585   24.89459   25.70880   25.70880   32.95581   34.21083   34.21083   43.14188
  44.20788   44.20788   46.84298   47.79492   52.70840   52.70840   55.33331   55.33332
 kpt# 422, nband= 24, wtk=  1.00000, kpt= -0.0652  0.3551  0.3551 (reduced coord)
 -39.50530  -16.08671  -16.08671  -15.29392   12.66724   13.34768   13.34768   18.25934
  18.25934   24.92268   25.72685   25.72685   33.24056   34.10551   34.10551   43.05671
  44.42214   44.42214   46.46502   48.13409   52.65530   52.65530   55.25616   55.25616
 kpt# 423, nband= 24, wtk=  1.00000, kpt= -0.0761  0.3587  0.3587 (reduced coord)
 -39.50221  -16.08944  -16.08944  -15.30321   12.75330   13.27876   13.27876   18.26681
  18.26681   24.95023   25.74317   25.74317   33.52319   34.00878   34.00878   42.96817
  44.63842   44.63842   46.08484   48.47128   52.60306   52.60306   55.18981   55.18981
 kpt# 424, nband= 24, wtk=  1.00000, kpt= -0.0870  0.3623  0.3623 (reduced coord)
 -39.49897  -16.09174  -16.09174  -15.31444   12.84879   13.20580   13.20580   18.27830
  18.27830   24.97717   25.75696   25.75696   33.80243   33.92111   33.92111   42.87722
  44.85629   44.85629   45.70359   48.80592   52.55011   52.55011   55.13616   55.13616
 kpt# 425, nband= 24, wtk=  1.00000, kpt= -0.0978  0.3659  0.3659 (reduced coord)
 -39.49559  -16.09388  -16.09388  -15.32779   12.95367   13.12912   13.12912   18.29371
  18.29371   25.00344   25.76740   25.76740   33.84292   33.84292   34.07682   42.78453
  45.07535   45.07535   45.32273   49.13740   52.49466   52.49466   55.09687   55.09729
 kpt# 426, nband= 24, wtk=  1.00000, kpt= -0.1087  0.3696  0.3696 (reduced coord)
 -39.49206  -16.09546  -16.09546  -15.34323   13.04917   13.04917   13.06783   18.31322
  18.31322   25.02896   25.77375   25.77375   33.77468   33.77468   34.34434   42.69043
  44.94473   45.29520   45.29520   49.46508   52.43525   52.43525   55.07423   55.07442
 kpt# 427, nband= 24, wtk=  1.00000, kpt= -0.1196  0.3732  0.3732 (reduced coord)
 -39.48839  -16.09654  -16.09654  -15.35980   12.96632   12.96632   13.19123   18.33682
  18.33682   25.05361   25.77543   25.77543   33.71671   33.71671   34.60399   42.59446
  44.57289   45.51551   45.51551   49.78828   52.37075   52.37075   55.06984   55.07061
 kpt# 428, nband= 24, wtk=  1.00000, kpt= -0.1304  0.3768  0.3768 (reduced coord)
 -39.48460  -16.09725  -16.09725  -15.37794   12.88096   12.88096   13.32374   18.36436
  18.36436   25.07726   25.77176   25.77176   33.66929   33.66929   34.85322   42.49435
  44.21258   45.73594   45.73594   50.10625   52.29996   52.29996   55.08488   55.08925
 kpt# 429, nband= 24, wtk=  1.00000, kpt= -0.1413  0.3804  0.3804 (reduced coord)
 -39.48070  -16.09760  -16.09760  -15.39755   12.79352   12.79352   13.46523   18.39574
  18.39574   25.09975   25.76220   25.76220   33.63262   33.63262   35.08967   42.38482
  43.87251   45.95617   45.95617   50.41826   52.22227   52.22227   55.12019   55.12760
 kpt# 430, nband= 24, wtk=  1.00000, kpt= -0.1522  0.3841  0.3841 (reduced coord)
 -39.47669  -16.09761  -16.09761  -15.41852   12.70441   12.70441   13.61554   18.43085
  18.43085   25.12091   25.74633   25.74633   33.60678   33.60678   35.31073   42.25556
  43.56668   46.17593   46.17593   50.72353   52.13752   52.13752   55.17613   55.19340
 kpt# 431, nband= 24, wtk=  1.00000, kpt= -0.1630  0.3877  0.3877 (reduced coord)
 -39.47260  -16.09684  -16.09684  -15.44054   12.61413   12.61413   13.77446   18.46960
  18.46960   25.14059   25.72403   25.72403   33.59219   33.59219   35.51327   42.09104
  43.31468   46.39519   46.39519   51.02141   52.04640   52.04640   55.23664   55.25271
 kpt# 432, nband= 24, wtk=  1.00000, kpt= -0.1739  0.3913  0.3913 (reduced coord)
 -39.46842  -16.09624  -16.09624  -15.46387   12.52289   12.52289   13.94187   18.51180
  18.51180   25.15841   25.69465   25.69465   33.58788   33.58788   35.69506   41.87693
  43.13469   46.61325   46.61325   51.31090   51.94869   51.94869   55.12026   55.34920
 kpt# 433, nband= 24, wtk=  1.00000, kpt= -0.1848  0.3949  0.3949 (reduced coord)
 -39.46418  -16.09536  -16.09536  -15.48818   12.43117   12.43117   14.11752   18.55734
  18.55734   25.17419   25.65831   25.65831   33.59404   33.59404   35.85286   41.61275
  43.03135   46.83010   46.83010   51.59138   51.84574   51.84574   55.00478   55.46490
 kpt# 434, nband= 24, wtk=  1.00000, kpt= -0.1957  0.3986  0.3986 (reduced coord)
 -39.45989  -16.09422  -16.09422  -15.51333   12.33937   12.33937   14.30118   18.60605
  18.60605   25.18761   25.61503   25.61503   33.61031   33.61031   35.98394   41.31200
  42.99505   47.04549   47.04549   51.73868   51.73868   51.86217   54.90590   55.59872
 kpt# 435, nband= 24, wtk=  1.00000, kpt= -0.2065  0.4022  0.4022 (reduced coord)
 -39.45556  -16.09284  -16.09284  -15.53918   12.24783   12.24783   14.49259   18.65778
  18.65778   25.19835   25.56494   25.56494   33.63625   33.63625   36.08590   40.99094
  43.01306   47.25914   47.25914   51.62879   51.62879   52.12266   54.81762   55.74939
 kpt# 436, nband= 24, wtk=  1.00000, kpt= -0.2174  0.4058  0.4058 (reduced coord)
 -39.45120  -16.09125  -16.09125  -15.56559   12.15692   12.15692   14.69148   18.71235
  18.71235   25.20604   25.50827   25.50827   33.67129   33.67129   36.15687   40.66208
  43.07590   47.47069   47.47069   51.51751   51.51751   52.37230   54.73878   55.91544
 kpt# 437, nband= 24, wtk=  1.00000, kpt= -0.2283  0.4094  0.4094 (reduced coord)
 -39.44684  -16.08930  -16.08930  -15.59200   12.06700   12.06700   14.89756   18.76959
  18.76959   25.21043   25.44537   25.44537   33.71513   33.71513   36.19568   40.33413
  43.17738   47.67970   47.67970   51.40651   51.40651   52.61066   54.66884   56.09538
 kpt# 438, nband= 24, wtk=  1.00000, kpt= -0.2391  0.4130  0.4130 (reduced coord)
 -39.44248  -16.08747  -16.08747  -15.61968   11.97830   11.97830   15.11041   18.82921
  18.82921   25.21078   25.37654   25.37654   33.76631   33.76631   36.20127   40.01275
  43.31306   47.88538   47.88538   51.29731   51.29731   52.83742   54.60713   56.28695
 kpt# 439, nband= 24, wtk=  1.00000, kpt= -0.2500  0.4167  0.4167 (reduced coord)
 -39.43815  -16.08537  -16.08537  -15.64698   11.89116   11.89116   15.32984   18.89123
  18.89123   25.20676   25.30234   25.30234   33.82451   33.82451   36.17459   39.70256
  43.47953   48.08679   48.08679   51.19220   51.19220   53.05238   54.55320   56.48861
 kpt# 440, nband= 24, wtk=  1.00000, kpt= -0.2609  0.4203  0.4203 (reduced coord)
 -39.43385  -16.08315  -16.08315  -15.67427   11.80587   11.80587   15.55541   18.95533
  18.95533   25.19788   25.22326   25.22326   33.88885   33.88885   36.11618   39.40701
  43.67344   48.28246   48.28246   51.09366   51.09366   53.25545   54.50634   56.69771
 kpt# 441, nband= 24, wtk=  1.00000, kpt= -0.2717  0.4239  0.4239 (reduced coord)
 -39.42960  -16.08076  -16.08076  -15.70083   11.72270   11.72270   15.78669   19.02131
  19.02131   25.13990   25.13990   25.18397   33.95866   33.95866   36.02786   39.12888
  43.89156   48.47022   48.47022   51.00497   51.00497   53.44665   54.46621   56.91133
 kpt# 442, nband= 24, wtk=  1.00000, kpt= -0.2826  0.4275  0.4275 (reduced coord)
 -39.42543  -16.07810  -16.07810  -15.72834   11.64190   11.64190   16.02308   19.08893
  19.08893   25.05296   25.05296   25.16378   34.03277   34.03277   35.91113   38.86942
  44.13034   48.64699   48.64699   50.93038   50.93038   53.62627   54.43149   57.12539
 kpt# 443, nband= 24, wtk=  1.00000, kpt= -0.2935  0.4312  0.4312 (reduced coord)
 -39.42134  -16.07566  -16.07566  -15.75489   11.56366   11.56366   16.26440   19.15794
  19.15794   24.96274   24.96274   25.13708   34.11031   34.11031   35.77021   38.63011
  44.38721   48.80816   48.80816   50.87470   50.87470   53.79419   54.40179   57.33515
 kpt# 444, nband= 24, wtk=  1.00000, kpt= -0.3043  0.4348  0.4348 (reduced coord)
 -39.41735  -16.07318  -16.07318  -15.78091   11.48823   11.48823   16.50997   19.22807
  19.22807   24.87008   24.87008   25.10332   34.19047   34.19047   35.60839   38.41084
  44.65888   48.94813   48.94813   50.84485   50.84485   53.95083   54.37641   57.53369
 kpt# 445, nband= 24, wtk=  1.00000, kpt= -0.3152  0.4384  0.4384 (reduced coord)
 -39.41347  -16.07069  -16.07069  -15.80629   11.41580   11.41580   16.75918   19.29903
  19.29903   24.77564   24.77564   25.06196   34.27235   34.27235   35.43001   38.21092
  44.94241   49.06055   49.06055   50.84802   50.84802   54.09654   54.35461   57.71177
 kpt# 446, nband= 24, wtk=  1.00000, kpt= -0.3261  0.4420  0.4420 (reduced coord)
 -39.40973  -16.06821  -16.06821  -15.83089   11.34658   11.34658   17.01138   19.37049
  19.37049   24.68010   24.68010   25.01252   34.35508   34.35508   35.23969   38.02912
  45.23499   49.14024   49.14024   50.89019   50.89019   54.23166   54.33565   57.85718
 kpt# 447, nband= 24, wtk=  1.00000, kpt= -0.3370  0.4457  0.4457 (reduced coord)
 -39.40613  -16.06577  -16.06577  -15.85461   11.28072   11.28072   17.26582   19.44211
  19.44211   24.58417   24.58417   24.95457   34.43780   34.43780   35.04206   37.86391
  45.53391   49.18555   49.18555   50.97378   50.97378   54.31878   54.35657   57.95540
 kpt# 448, nband= 24, wtk=  1.00000, kpt= -0.3478  0.4493  0.4493 (reduced coord)
 -39.40269  -16.06337  -16.06337  -15.87733   11.21840   11.21840   17.52164   19.51349
  19.51349   24.48856   24.48856   24.88780   34.51968   34.51968   34.84156   37.71375
  45.83652   49.19946   49.19946   51.09646   51.09646   54.30326   54.47164   57.99274
 kpt# 449, nband= 24, wtk=  1.00000, kpt= -0.3587  0.4529  0.4529 (reduced coord)
 -39.39942  -16.06105  -16.06105  -15.89895   11.15976   11.15976   17.77789   19.58419
  19.58419   24.39401   24.39401   24.81205   34.59989   34.59989   34.64223   37.57720
  46.14016   49.18830   49.18830   51.25254   51.25254   54.28836   54.57724   57.96171
 kpt# 450, nband= 24, wtk=  1.00000, kpt= -0.3696  0.4565  0.4565 (reduced coord)
 -39.39634  -16.05881  -16.05881  -15.91937   11.10493   11.10493   18.03343   19.65374
  19.65374   24.30128   24.30128   24.72736   34.44763   34.67767   34.67767   37.45307
  46.44218   49.15931   49.15931   51.43532   51.43532   54.27338   54.67371   57.86460
 kpt# 451, nband= 24, wtk=  1.00000, kpt= -0.3804  0.4601  0.4601 (reduced coord)
 -39.39346  -16.05668  -16.05668  -15.93850   11.05405   11.05405   18.28694   19.72159
  19.72159   24.21118   24.21118   24.63406   34.26080   34.75226   34.75226   37.34040
  46.73980   49.11894   49.11894   51.63880   51.63880   54.25771   54.76136   57.71165
 kpt# 452, nband= 24, wtk=  1.00000, kpt= -0.3913  0.4638  0.4638 (reduced coord)
 -39.39078  -16.05465  -16.05465  -15.95595   11.00723   11.00723   18.53687   19.78717
  19.78717   24.12454   24.12454   24.53302   34.08435   34.82304   34.82304   37.23849
  47.03021   49.07228   49.07228   51.85828   51.85828   54.24114   54.84051   57.51586
 kpt# 453, nband= 24, wtk=  1.00000, kpt= -0.4022  0.4674  0.4674 (reduced coord)
 -39.38833  -16.05279  -16.05279  -15.97227   10.96456   10.96456   18.78134   19.84983
  19.84983   24.04218   24.04218   24.42483   33.92030   34.88918   34.88918   37.14682
  47.31015   49.02310   49.02310   52.09008   52.09008   54.22272   54.91139   57.28908
 kpt# 454, nband= 24, wtk=  1.00000, kpt= -0.4130  0.4710  0.4710 (reduced coord)
 -39.38611  -16.05108  -16.05108  -15.98705   10.92615   10.92615   19.01806   19.90888
  19.90888   23.96501   23.96501   24.31134   33.77038   34.95014   34.95014   37.06507
  47.57637   48.97420   48.97420   52.33148   52.33148   54.20262   54.97426   57.04080
 kpt# 455, nband= 24, wtk=  1.00000, kpt= -0.4239  0.4746  0.4746 (reduced coord)
 -39.38412  -16.04953  -16.04953  -16.00025   10.89206   10.89206   19.24427   19.96357
  19.96357   23.89393   23.89393   24.19476   33.63592   35.00535   35.00535   36.99302
  47.82528   48.92762   48.92762   52.58015   52.58015   54.18102   55.02930   56.77834
 kpt# 456, nband= 24, wtk=  1.00000, kpt= -0.4348  0.4783  0.4783 (reduced coord)
 -39.38239  -16.04817  -16.04817  -16.01180   10.86238   10.86238   19.45656   20.01315
  20.01315   23.82986   23.82986   24.07806   33.51795   35.05429   35.05429   36.93058
  48.05306   48.88488   48.88488   52.83387   52.83387   54.15840   55.07668   56.50753
 kpt# 457, nband= 24, wtk=  1.00000, kpt= -0.4457  0.4819  0.4819 (reduced coord)
 -39.38090  -16.04699  -16.04699  -16.02164   10.83717   10.83717   19.65079   20.05682
  20.05682   23.77372   23.77372   23.96508   33.41720   35.09651   35.09651   36.87769
  48.25567   48.84712   48.84712   53.09004   53.09004   54.13563   55.11655   56.23354
 kpt# 458, nband= 24, wtk=  1.00000, kpt= -0.4565  0.4855  0.4855 (reduced coord)
 -39.37968  -16.04601  -16.04601  -16.02975   10.81646   10.81646   19.82201   20.09383
  20.09383   23.72637   23.72637   23.86054   33.33423   35.13161   35.13161   36.83436
  48.42897   48.81520   48.81520   53.34495   53.34495   54.11392   55.14904   55.96196
 kpt# 459, nband= 24, wtk=  1.00000, kpt= -0.4674  0.4891  0.4891 (reduced coord)
 -39.37873  -16.04523  -16.04523  -16.03608   10.80032   10.80032   19.96453   20.12347
  20.12347   23.68860   23.68860   23.76998   33.26939   35.15927   35.15927   36.80060
  48.56895   48.78977   48.78977   53.59216   53.59216   54.09474   55.17428   55.70058
 kpt# 460, nband= 24, wtk=  1.00000, kpt= -0.4783  0.4928  0.4928 (reduced coord)
 -39.37804  -16.04466  -16.04466  -16.04060   10.78877   10.78877   20.07233   20.14512
  20.14512   23.66110   23.66110   23.69937   33.22294   35.17922   35.17922   36.77646
  48.67197   48.77129   48.77129   53.81854   53.81854   54.07961   55.19274   55.46346
 kpt# 461, nband= 24, wtk=  1.00000, kpt= -0.4891  0.4964  0.4964 (reduced coord)
 -39.37763  -16.04430  -16.04430  -16.04330   10.78183   10.78183   20.13976   20.15830
  20.15830   23.64440   23.64440   23.65428   33.19501   35.19127   35.19127   36.76195
  48.73506   48.76007   48.76007   53.99489   53.99489   54.06993   55.20953   55.28045
 kpt# 462, nband= 24, wtk=  1.00000, kpt= -0.5000  0.5000  0.5000 (reduced coord)
 -39.37749  -16.04616  -16.04616  -16.04616   10.77947   10.77947   20.16235   20.16235
  20.16235   23.63772   23.63772   23.63772   33.18564   35.19380   35.19380   36.75699
  48.75525   48.75525   48.75525   54.06535   54.06535   54.06535   55.20551   55.20551
 Total charge density [el/Bohr^3]
)     Maximum=    7.7282E-01  at reduced coord.    0.8333    0.8333    0.8333
)Next maximum=    7.7282E-01  at reduced coord.    0.0000    0.0000    0.8333
)     Minimum=    4.0405E-03  at reduced coord.    0.0000    0.0000    0.0000
)Next minimum=    3.0106E-02  at reduced coord.    0.5000    0.5000    0.0000
   Integrated=    1.3000E+01
 dataset: 2 , wall: 14:04 [minutes] , cpu: 10:13 [minutes] <<< TIME

== END DATASET(S) ==============================================================
================================================================================
  
 -outvars: echo values of variables after computation  --------
 
 These variables are accessible in NetCDF format (./outdata/ebnd_OUT.nc)

            acell      6.2360000000E+00  6.2360000000E+00  6.2360000000E+00 Bohr
              amu      9.29063800E+01
             ecut      3.30000000E+01 Hartree
           enunit1          0
           enunit2          1
           etotal1    -6.2283690167E+01
            fcart1    -0.0000000000E+00 -0.0000000000E+00 -0.0000000000E+00
-          fftalg         312
           getden1          0
           getden2         -1
             iscf1          7
             iscf2         -2
           istwfk2       2    0    0    0    0    0    0    0    0    0
                         0    0    0    0    0    0    0    0    0    0
                         0    0    0    0    0    0    0    0    0    0
                         0    0    0    0    0    0    0    0    0    0
                         0    0    0    0    0    0    0    0    0    0
                       outvar_i_n : Printing only first  50 k-points.
              ixc          11
           jdtset        1    2
              kpt1     6.25000000E-02  6.25000000E-02  6.25000000E-02
                       1.87500000E-01  6.25000000E-02  6.25000000E-02
                       3.12500000E-01  6.25000000E-02  6.25000000E-02
                       4.37500000E-01  6.25000000E-02  6.25000000E-02
                      -6.25000000E-02  6.25000000E-02  6.25000000E-02
                       1.87500000E-01  1.87500000E-01  6.25000000E-02
                       3.12500000E-01  1.87500000E-01  6.25000000E-02
                      -1.87500000E-01  1.87500000E-01  6.25000000E-02
                       3.12500000E-01  3.12500000E-01  6.25000000E-02
                      -3.12500000E-01  3.12500000E-01  6.25000000E-02
                      -1.87500000E-01  3.12500000E-01  6.25000000E-02
                      -4.37500000E-01  4.37500000E-01  6.25000000E-02
                      -3.12500000E-01  4.37500000E-01  6.25000000E-02
                      -4.37500000E-01 -4.37500000E-01  6.25000000E-02
                      -3.12500000E-01 -4.37500000E-01  6.25000000E-02
                       1.87500000E-01  1.87500000E-01  1.87500000E-01
                       3.12500000E-01  1.87500000E-01  1.87500000E-01
                      -1.87500000E-01  1.87500000E-01  1.87500000E-01
                      -3.12500000E-01  3.12500000E-01  1.87500000E-01
                      -4.37500000E-01  4.37500000E-01  1.87500000E-01
                      -3.12500000E-01  4.37500000E-01  1.87500000E-01
                      -4.37500000E-01 -4.37500000E-01  1.87500000E-01
                      -3.12500000E-01  3.12500000E-01  3.12500000E-01
                      -4.37500000E-01  4.37500000E-01  3.12500000E-01
                      -4.37500000E-01 -4.37500000E-01  3.12500000E-01
                      -4.37500000E-01  4.37500000E-01  4.37500000E-01
              kpt2     0.00000000E+00  0.00000000E+00  0.00000000E+00
                      -6.25000000E-03  6.25000000E-03  6.25000000E-03
                      -1.25000000E-02  1.25000000E-02  1.25000000E-02
                      -1.87500000E-02  1.87500000E-02  1.87500000E-02
                      -2.50000000E-02  2.50000000E-02  2.50000000E-02
                      -3.12500000E-02  3.12500000E-02  3.12500000E-02
                      -3.75000000E-02  3.75000000E-02  3.75000000E-02
                      -4.37500000E-02  4.37500000E-02  4.37500000E-02
                      -5.00000000E-02  5.00000000E-02  5.00000000E-02
                      -5.62500000E-02  5.62500000E-02  5.62500000E-02
                      -6.25000000E-02  6.25000000E-02  6.25000000E-02
                      -6.87500000E-02  6.87500000E-02  6.87500000E-02
                      -7.50000000E-02  7.50000000E-02  7.50000000E-02
                      -8.12500000E-02  8.12500000E-02  8.12500000E-02
                      -8.75000000E-02  8.75000000E-02  8.75000000E-02
                      -9.37500000E-02  9.37500000E-02  9.37500000E-02
                      -1.00000000E-01  1.00000000E-01  1.00000000E-01
                      -1.06250000E-01  1.06250000E-01  1.06250000E-01
                      -1.12500000E-01  1.12500000E-01  1.12500000E-01
                      -1.18750000E-01  1.18750000E-01  1.18750000E-01
                      -1.25000000E-01  1.25000000E-01  1.25000000E-01
                      -1.31250000E-01  1.31250000E-01  1.31250000E-01
                      -1.37500000E-01  1.37500000E-01  1.37500000E-01
                      -1.43750000E-01  1.43750000E-01  1.43750000E-01
                      -1.50000000E-01  1.50000000E-01  1.50000000E-01
                      -1.56250000E-01  1.56250000E-01  1.56250000E-01
                      -1.62500000E-01  1.62500000E-01  1.62500000E-01
                      -1.68750000E-01  1.68750000E-01  1.68750000E-01
                      -1.75000000E-01  1.75000000E-01  1.75000000E-01
                      -1.81250000E-01  1.81250000E-01  1.81250000E-01
                      -1.87500000E-01  1.87500000E-01  1.87500000E-01
                      -1.93750000E-01  1.93750000E-01  1.93750000E-01
                      -2.00000000E-01  2.00000000E-01  2.00000000E-01
                      -2.06250000E-01  2.06250000E-01  2.06250000E-01
                      -2.12500000E-01  2.12500000E-01  2.12500000E-01
                      -2.18750000E-01  2.18750000E-01  2.18750000E-01
                      -2.25000000E-01  2.25000000E-01  2.25000000E-01
                      -2.31250000E-01  2.31250000E-01  2.31250000E-01
                      -2.37500000E-01  2.37500000E-01  2.37500000E-01
                      -2.43750000E-01  2.43750000E-01  2.43750000E-01
                      -2.50000000E-01  2.50000000E-01  2.50000000E-01
                      -2.56250000E-01  2.56250000E-01  2.56250000E-01
                      -2.62500000E-01  2.62500000E-01  2.62500000E-01
                      -2.68750000E-01  2.68750000E-01  2.68750000E-01
                      -2.75000000E-01  2.75000000E-01  2.75000000E-01
                      -2.81250000E-01  2.81250000E-01  2.81250000E-01
                      -2.87500000E-01  2.87500000E-01  2.87500000E-01
                      -2.93750000E-01  2.93750000E-01  2.93750000E-01
                      -3.00000000E-01  3.00000000E-01  3.00000000E-01
                      -3.06250000E-01  3.06250000E-01  3.06250000E-01
                       outvar_i_n : Printing only first  50 k-points.
           kptopt1          1
           kptopt2         -7
         kptrlatt        8    0    0      0    8    0      0    0    8
          kptrlen1     4.32042753E+01
          kptrlen2     3.00000000E+01
P           mkmem1          7
P           mkmem2        116
            natom           1
            nband1          8
            nband2         24
           nbdbuf1          0
           nbdbuf2          2
           ndtset           2
           ndivsm1          0
           ndivsm2         40
            ngfft          30      30      30
             nkpt1         26
             nkpt2        462
            nstep          80
             nsym          48
           ntypat           1
              occ      2.000000  2.000000  2.000000  2.000000  2.000000  2.000000
                       2.000000  0.000000
                       2.000000  2.000000  2.000000  2.000000  2.000000  2.000000
                       2.000000  0.000000
                       2.000000  2.000000  2.000000  2.000000  2.000000  2.000000
                       0.000000  0.000000
                       2.000000  2.000000  2.000000  2.000000  2.000000  2.000000
                       0.000000  0.000000
                       2.000000  2.000000  2.000000  2.000000  2.000000  0.000000
                       0.000000  0.000000
                       2.000000  2.000000  2.000000  2.000000  2.000000  2.000000
                       2.000000  0.000000
                       2.000000  2.000000  2.000000  2.000000  2.000000  2.000000
                       0.001933  0.000000
                       2.000000  2.000000  2.000000  2.000000  2.000000  2.000000
                       1.305526  0.000000
                       2.000000  2.000000  2.000000  2.000000  2.000000  2.000000
                       2.000000  0.000000
                       2.000000  2.000000  2.000000  2.000000  2.000000  2.000000
                       2.023941  0.000000
                       2.000000  2.000000  2.000000  2.000000  2.000000  2.000000
                       2.000000  0.000000
                       2.000000  2.000000  2.000000  2.000000  2.000000  2.000000
                       0.000000  0.000000
                       2.000000  2.000000  2.000000  2.000000  2.000000  2.000000
                       2.000000  0.000000
                       2.000000  2.000000  2.000000  2.000000  2.000000  2.000000
                       0.000000  0.000000
                       2.000000  2.000000  2.000000  2.000000  2.000000  2.000000
                       2.000000  0.000000
                       2.000000  2.000000  2.000000  2.000000  2.000000  2.000000
                       2.000000  0.000000
                       2.000000  2.000000  2.000000  2.000000  2.000000  2.000000
                       2.000000  0.000000
                       2.000000  2.000000  2.000000  2.000000  2.000000  0.000000
                       0.000000  0.000000
                       2.000000  2.000000  2.000000  2.000000  2.000000  2.000000
                       0.000000  0.000000
                       2.000000  2.000000  2.000000  2.000000  2.000000  2.000000
                       2.000000  0.000000
                       2.000000  2.000000  2.000000  2.000000  2.000000  2.000000
                       0.000000  0.000000
                       2.000000  2.000000  2.000000  2.000000  2.000000  2.000000
                       2.000000  0.000000
                       2.000000  2.000000  2.000000  2.000000  2.000000  2.000000
                       0.000000  0.000000
                       2.000000  2.000000  2.000000  2.000000  2.000000  2.000000
                       0.000000  0.000000
                       2.000000  2.000000  2.000000  2.000000  2.000000  2.000000
                       0.000000  0.000000
                       2.000000  2.000000  2.000000  2.000000  2.000000  2.000000
                       0.000000  0.000000
           occopt           4
            rprim     -5.0000000000E-01  5.0000000000E-01  5.0000000000E-01
                       5.0000000000E-01 -5.0000000000E-01  5.0000000000E-01
                       5.0000000000E-01  5.0000000000E-01 -5.0000000000E-01
           shiftk      5.00000000E-01  5.00000000E-01  5.00000000E-01
          spgroup         229
           strten1     6.3323258285E-05  6.3323258285E-05  6.3323258285E-05
                       0.0000000000E+00  0.0000000000E+00  0.0000000000E+00
           symrel      1  0  0   0  1  0   0  0  1      -1  0  0   0 -1  0   0  0 -1
                      -1 -1 -1   0  0  1   0  1  0       1  1  1   0  0 -1   0 -1  0
                       0  1  0   1  0  0  -1 -1 -1       0 -1  0  -1  0  0   1  1  1
                       0  0  1  -1 -1 -1   1  0  0       0  0 -1   1  1  1  -1  0  0
                       0  1  0   1  0  0   0  0  1       0 -1  0  -1  0  0   0  0 -1
                      -1 -1 -1   0  0  1   1  0  0       1  1  1   0  0 -1  -1  0  0
                       1  0  0   0  1  0  -1 -1 -1      -1  0  0   0 -1  0   1  1  1
                       0  0  1  -1 -1 -1   0  1  0       0  0 -1   1  1  1   0 -1  0
                      -1 -1 -1   1  0  0   0  0  1       1  1  1  -1  0  0   0  0 -1
                       0  1  0   0  0  1   1  0  0       0 -1  0   0  0 -1  -1  0  0
                       1  0  0  -1 -1 -1   0  1  0      -1  0  0   1  1  1   0 -1  0
                       0  0  1   0  1  0  -1 -1 -1       0  0 -1   0 -1  0   1  1  1
                       1  0  0  -1 -1 -1   0  0  1      -1  0  0   1  1  1   0  0 -1
                       0  1  0   0  0  1  -1 -1 -1       0 -1  0   0  0 -1   1  1  1
                      -1 -1 -1   1  0  0   0  1  0       1  1  1  -1  0  0   0 -1  0
                       0  0  1   0  1  0   1  0  0       0  0 -1   0 -1  0  -1  0  0
                       0  1  0  -1 -1 -1   0  0  1       0 -1  0   1  1  1   0  0 -1
                       1  0  0   0  0  1  -1 -1 -1      -1  0  0   0  0 -1   1  1  1
                      -1 -1 -1   0  1  0   1  0  0       1  1  1   0 -1  0  -1  0  0
                       0  0  1   1  0  0   0  1  0       0  0 -1  -1  0  0   0 -1  0
                      -1 -1 -1   0  1  0   0  0  1       1  1  1   0 -1  0   0  0 -1
                       1  0  0   0  0  1   0  1  0      -1  0  0   0  0 -1   0 -1  0
                       0  1  0  -1 -1 -1   1  0  0       0 -1  0   1  1  1  -1  0  0
                       0  0  1   1  0  0  -1 -1 -1       0  0 -1  -1  0  0   1  1  1
           toldfe1     1.00000000E-06 Hartree
           toldfe2     0.00000000E+00 Hartree
           tolwfr1     0.00000000E+00
           tolwfr2     1.00000000E-12
           tsmear      1.00000000E-03 Hartree
            typat      1
              wtk1       0.01563    0.04688    0.04688    0.02344    0.01172    0.04688
                         0.09375    0.04688    0.01563    0.04688    0.04688    0.04688
                         0.09375    0.04688    0.04688    0.01563    0.02344    0.01172
                         0.04688    0.04688    0.04688    0.04688    0.01172    0.04688
                         0.01563    0.01172
              wtk2       1.00000    1.00000    1.00000    1.00000    1.00000    1.00000
                         1.00000    1.00000    1.00000    1.00000    1.00000    1.00000
                         1.00000    1.00000    1.00000    1.00000    1.00000    1.00000
                         1.00000    1.00000    1.00000    1.00000    1.00000    1.00000
                         1.00000    1.00000    1.00000    1.00000    1.00000    1.00000
                         1.00000    1.00000    1.00000    1.00000    1.00000    1.00000
                         1.00000    1.00000    1.00000    1.00000    1.00000    1.00000
                         1.00000    1.00000    1.00000    1.00000    1.00000    1.00000
                         1.00000    1.00000
                       outvars : Printing only first  50 k-points.
            znucl       41.00000

================================================================================

 symlatt: the Bravais lattice is cI (body-centered cubic)
 symspgr: spgroup= 229  Im -3 m   (=Oh^9)
 symspgr: optical characteristics = isotropic
 DATASET    1 : space group Im -3 m (#229); Bravais cI (body-center cubic)

 symlatt: the Bravais lattice is cI (body-centered cubic)
 symspgr: spgroup= 229  Im -3 m   (=Oh^9)
 symspgr: optical characteristics = isotropic
 DATASET    2 : space group Im -3 m (#229); Bravais cI (body-center cubic)

================================================================================
  
 Proc.   0 individual time (sec): cpu=        625.4  wall=        869.3

 Calculation completed.
.Delivered   0 WARNINGs and   0 COMMENTs to log file.

--- !FinalSummary
program: abinit
version: 10.2.7-d
start_datetime: Tue Aug 19 17:44:20 2025
end_datetime: Tue Aug 19 17:58:49 2025
overall_cpu_time:        2483.5
overall_wall_time:        3477.2
exit_requested_by_user: no 
timelimit: 0
pseudos: 
    Nb  : c757912afc3509af55de8954c62c9199
usepaw: 0
mpi_procs: 4
omp_threads: 8
num_warnings: 0
num_comments: 0
...
0425  0.0425 (reduced coord)
 -39.79264  -15.14395  -15.12216  -15.12216    8.74932   14.87985   14.87985   14.96426
  17.57907   17.88624   29.03818   29.07796   29.07796   37.90260   39.84659   42.47553
  42.47553   43.96749   48.19579   48.19579   48.37690   52.53147   56.90953   57.84910
 kpt# 509, nband= 24, wtk=  1.00000, kpt=  0.0400 -0.0400  0.0400 (reduced coord)
 -39.79361  -15.13982  -15.12035  -15.12035    8.73231   14.88160   14.88160   14.95656
  17.60463   17.87749   29.01394   29.04869   29.04869   38.04969   39.81869   42.49258
  42.49258   43.86025   48.24520   48.24520   48.41112   52.47987   56.92965   57.77193
 kpt# 510, nband= 24, wtk=  1.00000, kpt=  0.0375 -0.0375  0.0375 (reduced coord)
 -39.79453  -15.13592  -15.11865  -15.11865    8.71630   14.88328   14.88328   14.94933
  17.62879   17.86925   28.99099   29.02112   29.02112   38.19461   39.79249   42.50834
  42.50834   43.75276   48.29297   48.29297   48.44348   52.43033   56.94995   57.69827
 kpt# 511, nband= 24, wtk=  1.00000, kpt=  0.0350 -0.0350  0.0350 (reduced coord)
 -39.79539  -15.13145  -15.11691  -15.11691    8.70129   14.88493   14.88493   14.94256
  17.65154   17.86160   28.96938   28.99529   28.99529   38.33695   39.76801   42.52295
  42.52295   43.64608   48.33956   48.33956   48.47396   52.38317   56.97428   57.62840
 kpt# 512, nband= 24, wtk=  1.00000, kpt=  0.0325 -0.0325  0.0325 (reduced coord)
 -39.79620  -15.12804  -15.11543  -15.11543    8.68729   14.88646   14.88646   14.93626
  17.67283   17.85438   28.94912   28.97118   28.97118   38.47624   39.74521   42.53627
  42.53627   43.53931   48.38342   48.38342   48.50247   52.33846   56.99495   57.56231
 kpt# 513, nband= 24, wtk=  1.00000, kpt=  0.0300 -0.0300  0.0300 (reduced coord)
 -39.79694  -15.12449  -15.11405  -15.11405    8.67431   14.88791   14.88791   14.93042
  17.69266   17.84775   28.93024   28.94882   28.94882   38.61194   39.72409   42.54844
  42.54844   43.43405   48.42506   48.42506   48.52901   52.29652   57.02723   57.50026
 kpt# 514, nband= 24, wtk=  1.00000, kpt=  0.0275 -0.0275  0.0275 (reduced coord)
 -39.79763  -15.12158  -15.11278  -15.11278    8.66234   14.88926   14.88926   14.92504
  17.71099   17.84158   28.91277   28.92821   28.92821   38.74341   39.70468   42.55948
  42.55948   43.33019   48.46417   48.46417   48.55355   52.25741   57.05141   57.44243
 kpt# 515, nband= 24, wtk=  1.00000, kpt=  0.0250 -0.0250  0.0250 (reduced coord)
 -39.79826  -15.11891  -15.11162  -15.11162    8.65140   14.89052   14.89052   14.92013
  17.72780   17.83593   28.89674   28.90936   28.90936   38.86990   39.68695   42.56944
  42.56944   43.22886   48.50063   48.50063   48.57605   52.22132   57.07495   57.38899
 kpt# 516, nband= 24, wtk=  1.00000, kpt=  0.0225 -0.0225  0.0225 (reduced coord)
 -39.79882  -15.11649  -15.11058  -15.11058    8.64148   14.89166   14.89166   14.91569
  17.74308   17.83081   28.88216   28.89229   28.89229   38.99053   39.67092   42.57835
  42.57835   43.13095   48.53424   48.53424   48.59650   52.18837   57.10478   57.34009
 kpt# 517, nband= 24, wtk=  1.00000, kpt=  0.0200 -0.0200  0.0200 (reduced coord)
 -39.79933  -15.11432  -15.10964  -15.10964    8.63260   14.89271   14.89271   14.91171
  17.75680   17.82622   28.86906   28.87699   28.87699   39.10430   39.65658   42.58625
  42.58625   43.03749   48.56484   48.56484   48.61486   52.15867   57.11856   57.29588
 kpt# 518, nband= 24, wtk=  1.00000, kpt=  0.0175 -0.0175  0.0175 (reduced coord)
 -39.79978  -15.11240  -15.10881  -15.10881    8.62476   14.89364   14.89364   14.90821
  17.76894   17.82217   28.85745   28.86348   28.86348   39.21001   39.64393   42.59315
  42.59315   42.94967   48.59224   48.59224   48.63112   52.13229   57.12283   57.25652
 kpt# 519, nband= 24, wtk=  1.00000, kpt=  0.0150 -0.0150  0.0150 (reduced coord)
 -39.80017  -15.11073  -15.10809  -15.10809    8.61795   14.89445   14.89445   14.90516
  17.77950   17.81866   28.84736   28.85176   28.85176   39.30633   39.63297   42.59908
  42.59908   42.86882   48.61632   48.61632   48.64525   52.10930   57.12895   57.22211
 kpt# 520, nband= 24, wtk=  1.00000, kpt=  0.0125 -0.0125  0.0125 (reduced coord)
 -39.80050  -15.10932  -15.10749  -15.10749    8.61219   14.89514   14.89514   14.90259
  17.78846   17.81568   28.83880   28.84183   28.84183   39.39177   39.62369   42.60406
  42.60406   42.79645   48.63693   48.63693   48.65724   52.08976   57.13151   57.19279
 kpt# 521, nband= 24, wtk=  1.00000, kpt=  0.0100 -0.0100  0.0100 (reduced coord)
 -39.80077  -15.10816  -15.10699  -15.10699    8.60747   14.89571   14.89571   14.90048
  17.79580   17.81324   28.83177   28.83370   28.83370   39.46476   39.61610   42.60811
  42.60811   42.73415   48.65395   48.65395   48.66707   52.07372   57.13125   57.16866
 kpt# 522, nband= 24, wtk=  1.00000, kpt=  0.0075 -0.0075  0.0075 (reduced coord)
 -39.80098  -15.10726  -15.10660  -15.10660    8.60380   14.89616   14.89616   14.89884
  17.80153   17.81134   28.82630   28.82738   28.82738   39.52370   39.61020   42.61125
  42.61125   42.68352   48.66730   48.66730   48.67473   52.06120   57.12946   57.14980
 kpt# 523, nband= 24, wtk=  1.00000, kpt=  0.0050 -0.0050  0.0050 (reduced coord)
 -39.80113  -15.10662  -15.10633  -15.10633    8.60118   14.89648   14.89648   14.89767
  17.80562   17.80998   28.82238   28.82286   28.82286   39.56708   39.60599   42.61348
  42.61348   42.64606   48.67689   48.67689   48.68021   52.05225   57.12741   57.13627
 kpt# 524, nband= 24, wtk=  1.00000, kpt=  0.0025 -0.0025  0.0025 (reduced coord)
 -39.80122  -15.10623  -15.10616  -15.10616    8.59960   14.89667   14.89667   14.89697
  17.80808   17.80917   28.82003   28.82015   28.82015   39.59366   39.60346   42.61482
  42.61482   42.62304   48.68266   48.68266   48.68350   52.04687   57.12593   57.12814
 kpt# 525, nband= 24, wtk=  1.00000, kpt=  0.0000  0.0000  0.0000 (reduced coord)
 -39.80125  -15.10610  -15.10610  -15.10610    8.59908   14.89674   14.89674   14.89674
  17.80890   17.80890   28.81924   28.81924   28.81924   39.60262   39.60262   42.61526
  42.61526   42.61526   48.68459   48.68459   48.68459   52.04507   57.12542   57.12542
 kpt# 526, nband= 24, wtk=  1.00000, kpt=  0.0014  0.0014  0.0014 (reduced coord)
 -39.80122  -15.10631  -15.10612  -15.10612    8.59960   14.89650   14.89650   14.89733
  17.80862   17.80862   28.81958   28.82037   28.82037   39.59854   39.59854   42.61257
  42.62007   42.62007   48.68107   48.68387   48.68387   52.04687   57.12624   57.12680
 kpt# 527, nband= 24, wtk=  1.00000, kpt=  0.0029  0.0029  0.0029 (reduced coord)
 -39.80113  -15.10691  -15.10618  -15.10618    8.60118   14.89577   14.89577   14.89909
  17.80780   17.80780   28.82059   28.82376   28.82376   39.58641   39.58641   42.60448
  42.63440   42.63440   48.67051   48.68170   48.68170   52.05229   57.12870   57.13094
 kpt# 528, nband= 24, wtk=  1.00000, kpt=  0.0043  0.0043  0.0043 (reduced coord)
 -39.80098  -15.10791  -15.10628  -15.10628    8.60381   14.89456   14.89456   14.90204
  17.80643   17.80643   28.82228   28.82941   28.82941   39.56646   39.56646   42.59103
  42.65801   42.65801   48.65293   48.67810   48.67810   52.06138   57.13279   57.13772
 kpt# 529, nband= 24, wtk=  1.00000, kpt=  0.0058  0.0058  0.0058 (reduced coord)
 -39.80077  -15.10932  -15.10641  -15.10641    8.60749   14.89286   14.89286   14.90617
  17.80453   17.80453   28.82464   28.83729   28.83729   39.53908   39.53908   42.57227
  42.69051   42.69051   48.62835   48.67308   48.67308   52.07421   57.13850   57.14707
 kpt# 530, nband= 24, wtk=  1.00000, kpt=  0.0072  0.0072  0.0072 (reduced coord)
 -39.80050  -15.11113  -15.10659  -15.10659    8.61222   14.89068   14.89068   14.91147
  17.80210   17.80210   28.82767   28.84741   28.84741   39.50475   39.50475   42.54824
  42.73142   42.73142   48.59682   48.66665   48.66665   52.09088   57.14583   57.15809
 kpt# 531, nband= 24, wtk=  1.00000, kpt=  0.0087  0.0087  0.0087 (reduced coord)
 -39.80017  -15.11333  -15.10680  -15.10680    8.61799   14.88801   14.88801   14.91795
  17.79915   17.79915   28.83138   28.85973   28.85973   39.46406   39.46406   42.51904
  42.78013   42.78013   48.55840   48.65885   48.65885   52.11149   57.15477   57.17064
 kpt# 532, nband= 24, wtk=  1.00000, kpt=  0.0101  0.0101  0.0101 (reduced coord)
 -39.79978  -15.11593  -15.10705  -15.10705    8.62480   14.88485   14.88485   14.92562
  17.79570   17.79570   28.83577   28.87423   28.87423   39.41761   39.41761   42.48475
  42.83605   42.83605   48.51318   48.64970   48.64970   52.13616   57.16529   57.18490
 kpt# 533, nband= 24, wtk=  1.00000, kpt=  0.0116  0.0116  0.0116 (reduced coord)
 -39.79933  -15.11893  -15.10735  -15.10735    8.63265   14.88119   14.88119   14.93446
  17.79177   17.79177   28.84083   28.89089   28.89089   39.36605   39.36605   42.44546
  42.89852   42.89852   48.46128   48.63925   48.63925   52.16498   57.17738   57.20018
 kpt# 534, nband= 24, wtk=  1.00000, kpt=  0.0130  0.0130  0.0130 (reduced coord)
 -39.79882  -15.12231  -15.10768  -15.10768    8.64154   14.87704   14.87704   14.94448
  17.78737   17.78737   28.84656   28.90967   28.90967   39.30999   39.30999   42.40131
  42.96691   42.96691   48.40284   48.62754   48.62754   52.19805   57.19102   57.21578
 kpt# 535, nband= 24, wtk=  1.00000, kpt=  0.0145  0.0145  0.0145 (reduced coord)
 -39.79825  -15.12609  -15.10805  -15.10805    8.65145   14.87238   14.87238   14.95569
  17.78252   17.78252   28.85297   28.93053   28.93053   39.25003   39.25003   42.35239
  43.04061   43.04061   48.33804   48.61461   48.61461   52.23541   57.20618   57.23136
 kpt# 536, nband= 24, wtk=  1.00000, kpt=  0.0159  0.0159  0.0159 (reduced coord)
 -39.79763  -15.13025  -15.10846  -15.10846    8.66239   14.86723   14.86723   14.96807
  17.77726   17.77726   28.86005   28.95344   28.95344   39.18674   39.18674   42.29886
  43.11904   43.11904   48.26709   48.60052   48.60052   52.27712   57.22285   57.24694
 kpt# 537, nband= 24, wtk=  1.00000, kpt=  0.0173  0.0173  0.0173 (reduced coord)
 -39.79694  -15.13479  -15.10891  -15.10891    8.67435   14.86156   14.86156   14.98164
  17.77160   17.77160   28.86781   28.97835   28.97835   39.12064   39.12064   42.24084
  43.20166   43.20166   48.19022   48.58535   48.58535   52.32316   57.24098   57.26280
 kpt# 538, nband= 24, wtk=  1.00000, kpt=  0.0188  0.0188  0.0188 (reduced coord)
 -39.79620  -15.14010  -15.10940  -15.10940    8.68731   14.85539   14.85539   14.99634
  17.76557   17.76557   28.87624   29.00521   29.00521   39.05221   39.05221   42.17824
  43.28796   43.28796   48.10684   48.56915   48.56915   52.37349   57.26056   57.39992
 kpt# 539, nband= 24, wtk=  1.00000, kpt=  0.0202  0.0202  0.0202 (reduced coord)
 -39.79540  -15.14540  -15.10993  -15.10993    8.70128   14.84870   14.84870   15.01228
  17.75920   17.75920   28.88534   29.03397   29.03397   38.98188   38.98188   42.11168
  43.37749   43.37749   48.01893   48.55201   48.55201   52.42810   57.28155   57.40991
 kpt# 540, nband= 24, wtk=  1.00000, kpt=  0.0217  0.0217  0.0217 (reduced coord)
 -39.79454  -15.15166  -15.11061  -15.11061    8.71625   14.84148   14.84148   15.02935
  17.75249   17.75249   28.89512   29.06455   29.06455   38.91001   38.91001   42.04077
  43.46973   43.46973   47.92550   48.53382   48.53382   52.48682   57.30365   57.57021
 kpt# 541, nband= 24, wtk=  1.00000, kpt=  0.0231  0.0231  0.0231 (reduced coord)
 -39.79362  -15.15770  -15.11122  -15.11122    8.73220   14.83375   14.83375   15.04765
  17.74553   17.74553   28.90557   29.09692   29.09692   38.83704   38.83704   41.96623
  43.56446   43.56446   47.82776   48.51507   48.51507   52.54967   57.32736   57.59862
 kpt# 542, nband= 24, wtk=  1.00000, kpt=  0.0246  0.0246  0.0246 (reduced coord)
 -39.79265  -15.16410  -15.11188  -15.11188    8.74913   14.82550   14.82550   15.06714
  17.73832   17.73832   28.91670   29.13100   29.13100   38.76326   38.76326   41.88792
  43.66124   43.66124   47.72556   48.49567   48.49567   52.61646   57.35237   57.62046
 kpt# 543, nband= 24, wtk=  1.00000, kpt=  0.0260  0.0260  0.0260 (reduced coord)
 -39.79162  -15.17147  -15.11288  -15.11288    8.76704   14.81668   14.81668   15.08779
  17.73084   17.73084   28.92850   29.16671   29.16671   38.68887   38.68887   41.80572
  43.75945   43.75945   47.61919   48.47526   48.47526   52.68697   57.37809   57.42946
 kpt# 544, nband= 24, wtk=  1.00000, kpt=  0.0275  0.0275  0.0275 (reduced coord)
 -39.79054  -15.17858  -15.11362  -15.11362    8.78590   14.80737   14.80737   15.10965
  17.72324   17.72324   28.94097   29.20399   29.20399   38.61432   38.61432   41.72029
  43.85930   43.85930   47.50903   48.45492   48.45492   52.76119   57.40560   57.44880
 kpt# 545, nband= 24, wtk=  1.00000, kpt=  0.0289  0.0289  0.0289 (reduced coord)
 -39.78940  -15.18603  -15.11440  -15.11440    8.80571   14.79751   14.79751   15.13269
  17.71549   17.71549   28.95412   29.24275   29.24275   38.53975   38.53975   41.63148
  43.96020   43.96020   47.39535   48.43433   48.43433   52.83887   57.43429   57.47262
 kpt# 546, nband= 24, wtk=  1.00000, kpt=  0.0303  0.0303  0.0303 (reduced coord)
 -39.78821  -15.19382  -15.11522  -15.11522    8.82647   14.78712   14.78712   15.15693
  17.70764   17.70764   28.96795   29.28291   29.28291   38.46540   38.46540   41.53945
  44.06187   44.06187   47.27848   48.41363   48.41363   52.91983   57.46414   57.49994
 kpt# 547, nband= 24, wtk=  1.00000, kpt=  0.0318  0.0318  0.0318 (reduced coord)
 -39.78696  -15.20205  -15.11623  -15.11623    8.84816   14.77618   14.77618   15.18235
  17.69968   17.69968   28.98244   29.32438   29.32438   38.39152   38.39152   41.44427
  44.16369   44.16369   47.15865   48.39296   48.39296   53.00385   57.49496   57.54093
 kpt# 548, nband= 24, wtk=  1.00000, kpt=  0.0332  0.0332  0.0332 (reduced coord)
 -39.78567  -15.21050  -15.11714  -15.11714    8.87076   14.76471   14.76471   15.20896
  17.69171   17.69171   28.99761   29.36707   29.36707   38.31823   38.31823   41.34614
  44.26595   44.26595   47.03623   48.37262   48.37262   53.09080   57.52697   57.57113
 kpt# 549, nband= 24, wtk=  1.00000, kpt=  0.0347  0.0347  0.0347 (reduced coord)
 -39.78431  -15.21926  -15.11809  -15.11809    8.89427   14.75269   14.75269   15.23677
  17.68373   17.68373   29.01346   29.41089   29.41089   38.24573   38.24573   41.24513
  44.36804   44.36804   46.91147   48.35278   48.35278   53.18046   57.56000   57.60264
 kpt# 550, nband= 24, wtk=  1.00000, kpt=  0.0361  0.0361  0.0361 (reduced coord)
 -39.78291  -15.22833  -15.11909  -15.11909    8.91867   14.74013   14.74013   15.26576
  17.67578   17.67578   29.02998   29.45573   29.45573   38.17422   38.17422   41.14135
  44.46966   44.46966   46.78462   48.33368   48.33368   53.27261   57.59400   57.63542
 kpt# 551, nband= 24, wtk=  1.00000, kpt=  0.0376  0.0376  0.0376 (reduced coord)
 -39.78146  -15.23770  -15.12013  -15.12013    8.94396   14.72703   14.72703   15.29595
  17.66790   17.66790   29.04717   29.50148   29.50148   38.10387   38.10387   41.03492
  44.57046   44.57046   46.65593   48.31557   48.31557   53.36707   57.62893   57.66949
 kpt# 552, nband= 24, wtk=  1.00000, kpt=  0.0390  0.0390  0.0390 (reduced coord)
 -39.77995  -15.24736  -15.12122  -15.12122    8.97012   14.71338   14.71338   15.32732
  17.66011   17.66011   29.06504   29.54804   29.54804   38.03482   38.03482   40.92592
  44.67009   44.67009   46.52565   48.29877   48.29877   53.46362   57.66474   57.70488
 kpt# 553, nband= 24, wtk=  1.00000, kpt=  0.0405  0.0405  0.0405 (reduced coord)
 -39.77840  -15.25731  -15.12234  -15.12234    8.99713   14.69919   14.69919   15.35989
  17.65245   17.65245   29.08358   29.59529   29.59529   37.96725   37.96725   40.81445
  44.76817   44.76817   46.39399   48.28359   48.28359   53.56206   57.70138   57.72987
 kpt# 554, nband= 24, wtk=  1.00000, kpt=  0.0419  0.0419  0.0419 (reduced coord)
 -39.77680  -15.26754  -15.12352  -15.12352    9.02498   14.68447   14.68447   15.39365
  17.64494   17.64494   29.10279   29.64311   29.64311   37.90130   37.90130   40.70061
  44.86429   44.86429   46.26117   48.27040   48.27040   53.66217   57.73881   57.76782
 kpt# 555, nband= 24, wtk=  1.00000, kpt=  0.0434  0.0434  0.0434 (reduced coord)
 -39.77514  -15.27817  -15.12506  -15.12506    9.05366   14.66918   14.66918   15.42860
  17.63760   17.63760   29.12268   29.69137   29.69137   37.83710   37.83710   40.58436
  44.95772   44.95772   46.12720   48.25918   48.25918   53.76374   57.77671   57.81861
 kpt# 556, nband= 24, wtk=  1.00000, kpt=  0.0448  0.0448  0.0448 (reduced coord)
 -39.77345  -15.28893  -15.12633  -15.12633    9.08316   14.65340   14.65340   15.46474
  17.63050   17.63050   29.14324   29.73996   29.73996   37.77486   37.77486   40.46600
  45.04859   45.04859   45.99265   48.25120   48.25120   53.86656   57.81557   57.85108
 kpt# 557, nband= 24, wtk=  1.00000, kpt=  0.0462  0.0462  0.0462 (reduced coord)
 -39.77170  -15.29994  -15.12764  -15.12764    9.11346   14.63708   14.63708   15.50207
  17.62365   17.62365   29.16448   29.78873   29.78873   37.71470   37.71470   40.34550
  45.13611   45.13611   45.85750   48.24651   48.24651   53.97040   57.85507   57.89682
 kpt# 558, nband= 24, wtk=  1.00000, kpt=  0.0477  0.0477  0.0477 (reduced coord)
 -39.76991  -15.31120  -15.12900  -15.12900    9.14455   14.62025   14.62025   15.54060
  17.61708   17.61708   29.18638   29.83754   29.83754   37.65677   37.65677   40.22294
  45.21976   45.21976   45.72192   48.24560   48.24560   54.07501   57.89515   57.94432
 kpt# 559, nband= 24, wtk=  1.00000, kpt=  0.0491  0.0491  0.0491 (reduced coord)
 -39.76808  -15.32269  -15.13040  -15.13040    9.17640   14.60291   14.60291   15.58031
  17.61080   17.61080   29.20896   29.88626   29.88626   37.60122   37.60122   40.09839
  45.29900   45.29900   45.58608   48.24898   48.24898   54.18016   57.93578   57.99324
 kpt# 560, nband= 24, wtk=  1.00000, kpt=  0.0506  0.0506  0.0506 (reduced coord)
 -39.76620  -15.33441  -15.13185  -15.13185    9.20902   14.58507   14.58507   15.62121
  17.60484   17.60484   29.23222   29.93474   29.93474   37.54820   37.54820   39.97190
  45.37329   45.37329   45.45011   48.25719   48.25719   54.28560   57.97689   58.04275
 kpt# 561, nband= 24, wtk=  1.00000, kpt=  0.0520  0.0520  0.0520 (reduced coord)
 -39.76428  -15.34635  -15.13335  -15.13335    9.24237   14.56674   14.56674   15.66330
  17.59922   17.59922   29.25614   29.98282   29.98282   37.49786   37.49786   39.84354
  45.31416   45.44210   45.44210   48.27074   48.27074   54.39105   58.01843   58.09151
 kpt# 562, nband= 24, wtk=  1.00000, kpt=  0.0535  0.0535  0.0535 (reduced coord)
 -39.76232  -15.35849  -15.13490  -15.13490    9.27646   14.54793   14.54793   15.70658
  17.59397   17.59397   29.28074   30.03035   30.03035   37.45035   37.45035   39.71337
  45.17836   45.50492   45.50492   48.29012   48.29012   54.49622   58.06034   58.12404
 kpt# 563, nband= 24, wtk=  1.00000, kpt=  0.0549  0.0549  0.0549 (reduced coord)
 -39.76031  -15.37122  -15.13650  -15.13650    9.31124   14.52865   14.52865   15.75097
  17.58909   17.58909   29.30601   30.07719   30.07719   37.40584   37.40584   39.58139
  45.04236   45.56129   45.56129   48.31574   48.31574   54.60039   58.10254   58.16212
 kpt# 564, nband= 24, wtk=  1.00000, kpt=  0.0564  0.0564  0.0564 (reduced coord)
 -39.75827  -15.38375  -15.13814  -15.13814    9.34673   14.50891   14.50891   15.79661
  17.58462   17.58462   29.33196   30.12316   30.12316   37.36446   37.36446   39.44778
  44.90721   45.61084   45.61084   48.34801   48.34801   54.70407   58.14503   58.22481
 kpt# 565, nband= 24, wtk=  1.00000, kpt=  0.0578  0.0578  0.0578 (reduced coord)
 -39.75619  -15.39647  -15.13983  -15.13983    9.38290   14.48873   14.48873   15.84343
  17.58056   17.58056   29.35858   30.16810   30.16810   37.32637   37.32637   39.31253
  44.77254   45.65330   45.65330   48.38717   48.38717   54.80652   58.18772   58.26871
 kpt# 566, nband= 24, wtk=  1.00000, kpt=  0.0592  0.0592  0.0592 (reduced coord)
 -39.75407  -15.40935  -15.14158  -15.14158    9.41973   14.46813   14.46813   15.89143
  17.57692   17.57692   29.38587   30.21186   30.21186   37.29174   37.29174   39.17569
  44.63846   45.68849   45.68849   48.43337   48.43337   54.90737   58.23053   58.32730
 kpt# 567, nband= 24, wtk=  1.00000, kpt=  0.0607  0.0607  0.0607 (reduced coord)
 -39.75191  -15.42240  -15.14337  -15.14337    9.45721   14.44711   14.44711   15.94061
  17.57373   17.57373   29.41383   30.25428   30.25428   37.26070   37.26070   39.03731
  44.50505   45.71638   45.71638   48.48665   48.48665   55.00623   58.27339   58.36039
 kpt# 568, nband= 24, wtk=  1.00000, kpt=  0.0621  0.0621  0.0621 (reduced coord)
 -39.74972  -15.43436  -15.14504  -15.14504    9.49542   14.42571   14.42571   15.99098
  17.57101   17.57101   29.44246   30.29539   30.29539   37.23345   37.23345   38.89876
  44.37290   45.73714   45.73714   48.54717   48.54717   55.10289   58.31656   58.34687
 kpt# 569, nband= 24, wtk=  1.00000, kpt=  0.0636  0.0636  0.0636 (reduced coord)
 -39.74749  -15.44772  -15.14693  -15.14693    9.53415   14.40392   14.40392   16.04250
  17.56872   17.56872   29.47177   30.33464   30.33464   37.21004   37.21004   38.75744
  44.24107   45.75076   45.75076   48.61419   48.61419   55.19654   58.35929   58.38811
 kpt# 570, nband= 24, wtk=  1.00000, kpt=  0.0650  0.0650  0.0650 (reduced coord)
 -39.74523  -15.46130  -15.14963  -15.14963    9.57348   14.38171   14.38171   16.09516
  17.56686   17.56686   29.50173   30.37206   30.37206   37.19048   37.19048   38.61445
  44.10985   45.75715   45.75715   48.68686   48.68686   55.28683   58.40129   58.45900
 kpt# 571, nband= 24, wtk=  1.00000, kpt=  0.0665  0.0665  0.0665 (reduced coord)
 -39.74294  -15.47491  -15.15163  -15.15163    9.61339   14.35922   14.35922   16.14901
  17.56551   17.56551   29.53238   30.40752   30.40752   37.17527   37.17527   38.47040
  43.97991   45.75761   45.75761   48.76644   48.76644   55.37351   58.44352   58.49870
 kpt# 572, nband= 24, wtk=  1.00000, kpt=  0.0679  0.0679  0.0679 (reduced coord)
 -39.74062  -15.48862  -15.15369  -15.15369    9.65388   14.33641   14.33641   16.20401
  17.56463   17.56463   29.56370   30.44086   30.44086   37.16435   37.16435   38.32506
  43.85102   45.75209   45.75209   48.85168   48.85168   55.45603   58.48531   58.53706
 kpt# 573, nband= 24, wtk=  1.00000, kpt=  0.0694  0.0694  0.0694 (reduced coord)
 -39.73826  -15.50243  -15.15580  -15.15580    9.69491   14.31330   14.31330   16.26016
  17.56423   17.56423   29.59569   30.47197   30.47197   37.15785   37.15785   38.17848
  43.72322   45.74101   45.74101   48.94211   48.94211   55.53396   58.52655   58.57649
 kpt# 574, nband= 24, wtk=  1.00000, kpt=  0.0708  0.0708  0.0708 (reduced coord)
 -39.73588  -15.51633  -15.15796  -15.15796    9.73649   14.28991   14.28991   16.31746
  17.56432   17.56432   29.62836   30.50070   30.50070   37.15587   37.15587   38.03070
  43.59658   45.72483   45.72483   49.03725   49.03725   55.60689   58.56705   58.61743
 kpt# 575, nband= 24, wtk=  1.00000, kpt=  0.0723  0.0723  0.0723 (reduced coord)
 -39.73347  -15.53031  -15.16017  -15.16017    9.77858   14.26625   14.26625   16.37590
  17.56488   17.56488   29.66170   30.52695   30.52695   37.15852   37.15852   37.88177
  43.47113   45.70400   45.70400   49.13662   49.13662   55.67443   58.60664   58.66243
 kpt# 576, nband= 24, wtk=  1.00000, kpt=  0.0737  0.0737  0.0737 (reduced coord)
 -39.73103  -15.54393  -15.16226  -15.16226    9.82122   14.24238   14.24238   16.43547
  17.56593   17.56593   29.69570   30.55081   30.55081   37.16590   37.16590   37.73206
  43.34703   45.67925   45.67925   49.23983   49.23983   55.73632   58.64509   58.68823
 kpt# 577, nband= 24, wtk=  1.00000, kpt=  0.0751  0.0751  0.0751 (reduced coord)
 -39.72857  -15.55805  -15.16459  -15.16459    9.86430   14.21827   14.21827   16.49618
  17.56746   17.56746   29.73038   30.57179   30.57179   37.17803   37.17803   37.58097
  43.22411   45.65035   45.65035   49.34629   49.34629   55.79220   58.68205   58.72696
 kpt# 578, nband= 24, wtk=  1.00000, kpt=  0.0766  0.0766  0.0766 (reduced coord)
 -39.72608  -15.57258  -15.16718  -15.16718    9.90785   14.19394   14.19394   16.55797
  17.56941   17.56941   29.76573   30.58999   30.58999   37.19499   37.19499   37.42877
  43.10250   45.61779   45.61779   49.45534   49.45534   55.84163   58.71669   58.80651
 kpt# 579, nband= 24, wtk=  1.00000, kpt=  0.0780  0.0780  0.0780 (reduced coord)
 -39.72357  -15.58679  -15.16962  -15.16962    9.95186   14.16946   14.16946   16.62091
  17.57189   17.57189   29.80175   30.60541   30.60541   37.21684   37.21684   37.27570
  42.98226   45.58231   45.58231   49.56721   49.56721   55.88514   58.74952   58.84846
 kpt# 580, nband= 24, wtk=  1.00000, kpt=  0.0795  0.0795  0.0795 (reduced coord)
 -39.72104  -15.60103  -15.17211  -15.17211    9.99632   14.14483   14.14483   16.68495
  17.57484   17.57484   29.83845   30.61798   30.61798   37.12173   37.24359   37.24359
  42.86340   45.54403   45.54403   49.68121   49.68121   55.92243   58.77941   58.88126
 kpt# 581, nband= 24, wtk=  1.00000, kpt=  0.0809  0.0809  0.0809 (reduced coord)
 -39.71849  -15.61528  -15.17466  -15.17466   10.04120   14.12008   14.12008   16.75009
  17.57825   17.57825   29.87581   30.62766   30.62766   36.96689   37.27525   37.27525
  42.74595   45.50322   45.50322   49.79699   49.79699   55.95356   58.80555   58.89869
 kpt# 582, nband= 24, wtk=  1.00000, kpt=  0.0824  0.0824  0.0824 (reduced coord)
 -39.71592  -15.62955  -15.17727  -15.17727   10.08650   14.09521   14.09521   16.81632
  17.58212   17.58212   29.91384   30.63445   30.63445   36.81123   37.31182   37.31182
  42.62993   45.46016   45.46016   49.91421   49.91421   55.97869   58.82683   58.85329
 kpt# 583, nband= 24, wtk=  1.00000, kpt=  0.0838  0.0838  0.0838 (reduced coord)
 -39.71333  -15.64381  -15.17993  -15.17993   10.13218   14.07026   14.07026   16.88363
  17.58644   17.58644   29.95254   30.63835   30.63835   36.65481   37.35326   37.35326
  42.51537   45.41506   45.41506   50.03254   50.03254   55.99802   58.84176   58.89786
 kpt# 584, nband= 24, wtk=  1.00000, kpt=  0.0853  0.0853  0.0853 (reduced coord)
 -39.71072  -15.65807  -15.18265  -15.18265   10.17825   14.04524   14.04524   16.95201
  17.59120   17.59120   29.99192   30.63938   30.63938   36.49766   37.39955   37.39955
  42.40228   45.36814   45.36814   50.15169   50.15169   56.01182   58.84836   58.87242
 kpt# 585, nband= 24, wtk=  1.00000, kpt=  0.0867  0.0867  0.0867 (reduced coord)
 -39.70810  -15.67230  -15.18543  -15.18543   10.22469   14.02019   14.02019   17.02144
  17.59640   17.59640   30.03196   30.63758   30.63758   36.33984   37.45062   37.45062
  42.29069   45.31959   45.31959   50.27134   50.27134   56.02040   58.84411   58.85627
 kpt# 586, nband= 24, wtk=  1.00000, kpt=  0.0882  0.0882  0.0882 (reduced coord)
 -39.70546  -15.68651  -15.18826  -15.18826   10.27147   13.99511   13.99511   17.09193
  17.60203   17.60203   30.07267   30.63299   30.63299   36.18139   37.50641   37.50641
  42.18060   45.26957   45.26957   50.39119   50.39119   56.02406   58.82594   58.82763
 kpt# 587, nband= 24, wtk=  1.00000, kpt=  0.0896  0.0896  0.0896 (reduced coord)
 -39.70281  -15.70068  -15.19115  -15.19115   10.31859   13.97004   13.97004   17.16345
  17.60808   17.60808   30.11406   30.62567   30.62567   36.02236   37.56683   37.56683
  42.07203   45.21825   45.21825   50.51093   50.51093   56.02314   58.79067   58.79087
 kpt# 588, nband= 24, wtk=  1.00000, kpt=  0.0910  0.0910  0.0910 (reduced coord)
 -39.70015  -15.71524  -15.19388  -15.19388   10.36603   13.94499   13.94499   17.23577
  17.61456   17.61456   30.15612   30.61589   30.61589   35.86289   37.63182   37.63182
  41.96463   45.16607   45.16607   50.63022   50.63022   56.01651   58.73578   58.73580
 kpt# 589, nband= 24, wtk=  1.00000, kpt=  0.0925  0.0925  0.0925 (reduced coord)
 -39.69748  -15.72931  -15.19689  -15.19689   10.41377   13.91998   13.91998   17.30932
  17.62142   17.62142   30.19884   30.60334   30.60334   35.70285   37.70122   37.70122
  41.85914   45.11254   45.11254   50.74880   50.74880   56.00741   58.66023   58.66023
 kpt# 590, nband= 24, wtk=  1.00000, kpt=  0.0939  0.0939  0.0939 (reduced coord)
 -39.69480  -15.74331  -15.19996  -15.19996   10.46180   13.89504   13.89504   17.38386
  17.62867   17.62867   30.24223   30.58830   30.58830   35.54238   37.77495   37.77495
  41.75521   45.05809   45.05809   50.86629   50.86629   55.99469   58.56540   58.56543
 kpt# 591, nband= 24, wtk=  1.00000, kpt=  0.0954  0.0954  0.0954 (reduced coord)
 -39.69211  -15.75724  -15.20309  -15.20309   10.51011   13.87018   13.87018   17.45939
  17.63631   17.63631   30.28628   30.57087   30.57087   35.38151   37.85288   37.85288
  41.65284   45.00284   45.00284   50.98233   50.98233   55.97867   58.45436   58.45437
 kpt# 592, nband= 24, wtk=  1.00000, kpt=  0.0968  0.0968  0.0968 (reduced coord)
 -39.68941  -15.77109  -15.20628  -15.20628   10.55869   13.84543   13.84543   17.53589
  17.64431   17.64431   30.33101   30.55115   30.55115   35.22031   37.93488   37.93488
  41.55204   44.94688   44.94688   51.09653   51.09653   55.95960   58.33103   58.33103
 kpt# 593, nband= 24, wtk=  1.00000, kpt=  0.0983  0.0983  0.0983 (reduced coord)
 -39.68671  -15.78484  -15.20953  -15.20953   10.60751   13.82080   13.82080   17.61334
  17.65267   17.65267   30.37641   30.52924   30.52924   35.05881   38.02083   38.02083
  41.45281   44.89031   44.89031   51.20845   51.20845   55.93775   58.19925   58.19925
 kpt# 594, nband= 24, wtk=  1.00000, kpt=  0.0997  0.0997  0.0997 (reduced coord)
 -39.68400  -15.79848  -15.21284  -15.21284   10.65656   13.79631   13.79631   17.66138
  17.66138   17.69173   30.42247   30.50525   30.50525   34.89706   38.11058   38.11058
  41.35516   44.83322   44.83322   51.31762   51.31762   55.91337   58.06236   58.06236
 kpt# 595, nband= 24, wtk=  1.00000, kpt=  0.1012  0.1012  0.1012 (reduced coord)
 -39.68130  -15.81201  -15.21621  -15.21621   10.70583   13.77198   13.77198   17.67043
  17.67043   17.77105   30.46920   30.47930   30.47930   34.73510   38.20399   38.20399
  41.25909   44.77570   44.77570   51.42353   51.42353   55.88666   57.92308   57.92308
 kpt# 596, nband= 24, wtk=  1.00000, kpt=  0.1026  0.1026  0.1026 (reduced coord)
 -39.67858  -15.82542  -15.21964  -15.21964   10.75531   13.74783   13.74783   17.67980
  17.67980   17.85127   30.45148   30.45148   30.51660   34.57299   38.30092   38.30092
  41.16462   44.71783   44.71783   51.52559   51.52559   55.85782   57.78362   57.78362
 kpt# 597, nband= 24, wtk=  1.00000, kpt=  0.1040  0.1040  0.1040 (reduced coord)
 -39.67587  -15.83871  -15.22314  -15.22314   10.80498   13.72388   13.72388   17.68949
  17.68949   17.93238   30.42192   30.42192   30.56467   34.41077   38.40122   38.40122
  41.07174   44.65969   44.65969   51.62317   51.62317   55.82705   57.64582   57.64582
 kpt# 598, nband= 24, wtk=  1.00000, kpt=  0.1055  0.1055  0.1055 (reduced coord)
 -39.67316  -15.85185  -15.22669  -15.22669   10.85482   13.70014   13.70014   17.69949
  17.69949   18.01436   30.39072   30.39072   30.61340   34.24848   38.50473   38.50473
  40.98047   44.60137   44.60137   51.71556   51.71556   55.79451   57.51125   57.51125
 kpt# 599, nband= 24, wtk=  1.00000, kpt=  0.1069  0.1069  0.1069 (reduced coord)
 -39.67045  -15.86485  -15.23030  -15.23030   10.90483   13.67664   13.67664   17.70978
  17.70978   18.09719   30.35798   30.35798   30.66280   34.08617   38.61132   38.61132
  40.89080   44.54294   44.54294   51.80197   51.80197   55.76036   57.38132   57.38132
 kpt# 600, nband= 24, wtk=  1.00000, kpt=  0.1084  0.1084  0.1084 (reduced coord)
 -39.66775  -15.87769  -15.23397  -15.23397   10.95499   13.65337   13.65337   17.72034
  17.72034   18.18085   30.32382   30.32382   30.71287   33.92387   38.72082   38.72082
  40.80273   44.48448   44.48448   51.88157   51.88157   55.72472   57.25735   57.25735
 kpt# 601, nband= 24, wtk=  1.00000, kpt=  0.1098  0.1098  0.1098 (reduced coord)
 -39.66505  -15.89037  -15.23771  -15.23771   11.00528   13.63037   13.63037   17.73118
  17.73118   18.26533   30.28833   30.28833   30.76360   33.76165   38.83308   38.83308
  40.71628   44.42609   44.42609   51.95344   51.95344   55.68773   57.14060   57.14060
 kpt# 602, nband= 24, wtk=  1.00000, kpt=  0.1113  0.1113  0.1113 (reduced coord)
 -39.66235  -15.90288  -15.24150  -15.24150   11.05569   13.60765   13.60765   17.74228
  17.74228   18.35060   30.25162   30.25162   30.81500   33.59952   38.94794   38.94794
  40.63145   44.36784   44.36784   52.01660   52.01660   55.64951   57.03228   57.03228
 kpt# 603, nband= 24, wtk=  1.00000, kpt=  0.1127  0.1127  0.1127 (reduced coord)
 -39.65966  -15.91522  -15.24536  -15.24536   11.10621   13.58521   13.58521   17.75362
  17.75362   18.43664   30.21377   30.21377   30.86707   33.43755   39.06523   39.06523
  40.54824   44.30983   44.30983   52.07006   52.07006   55.61017   56.93358   56.93358
 kpt# 604, nband= 24, wtk=  1.00000, kpt=  0.1142  0.1142  0.1142 (reduced coord)
 -39.65698  -15.92736  -15.24928  -15.24928   11.15683   13.56309   13.56309   17.76520
  17.76520   18.52343   30.17488   30.17488   30.91980   33.27577   39.18479   39.18479
  40.46666   44.25216   44.25216   52.11283   52.11283   55.56979   56.84564   56.84564
 kpt# 605, nband= 24, wtk=  1.00000, kpt=  0.1156  0.1156  0.1156 (reduced coord)
 -39.65431  -15.93932  -15.25325  -15.25325   11.20752   13.54128   13.54128   17.77701
  17.77701   18.61095   30.13505   30.13505   30.97320   33.11423   39.30644   39.30644
  40.38671   44.19494   44.19494   52.14396   52.14396   55.52848   56.76951   56.76951
 kpt# 606, nband= 24, wtk=  1.00000, kpt=  0.1171  0.1171  0.1171 (reduced coord)
 -39.65164  -15.95107  -15.25729  -15.25729   11.25828   13.51980   13.51980   17.78902
  17.78902   18.69917   30.09434   30.09434   31.02726   32.95296   39.43000   39.43000
  40.30840   44.13827   44.13827   52.16262   52.16262   55.48631   56.70610   56.70610
 kpt# 607, nband= 24, wtk=  1.00000, kpt=  0.1185  0.1185  0.1185 (reduced coord)
 -39.64899  -15.96262  -15.26140  -15.26140   11.30908   13.49867   13.49867   17.80124
  17.80124   18.78808   30.05285   30.05285   31.08199   32.79200   39.55526   39.55526
  40.23174   44.08231   44.08231   52.16813   52.16813   55.44336   56.65615   56.65615
 kpt# 608, nband= 24, wtk=  1.00000, kpt=  0.1199  0.1199  0.1199 (reduced coord)
 -39.64636  -15.97378  -15.26525  -15.26525   11.35995   13.47790   13.47790   17.81369
  17.81369   18.87769   30.01086   30.01086   31.13740   32.63144   39.68203   39.68203
  40.15675   44.02745   44.02745   52.16010   52.16010   55.39970   56.62023   56.62023
 kpt# 609, nband= 24, wtk=  1.00000, kpt=  0.1214  0.1214  0.1214 (reduced coord)
 -39.64373  -15.98490  -15.26948  -15.26948   11.41082   13.45749   13.45749   17.82628
  17.82628   18.96789   29.96802   29.96802   31.19346   32.47124   39.81005   39.81005
  40.08339   43.97334   43.97334   52.13816   52.13816   55.35539   56.59842   56.59842
 kpt# 610, nband= 24, wtk=  1.00000, kpt=  0.1228  0.1228  0.1228 (reduced coord)
 -39.64112  -15.99578  -15.27376  -15.27376   11.46169   13.43746   13.43746   17.83903
  17.83903   19.05870   29.92462   29.92462   31.25018   32.31147   39.93909   39.93909
  40.01170   43.92044   43.92044   52.10246   52.10246   55.31050   56.59076   56.59076
 kpt# 611, nband= 24, wtk=  1.00000, kpt=  0.1243  0.1243  0.1243 (reduced coord)
 -39.63853  -16.00644  -15.27811  -15.27811   11.51255   13.41782   13.41782   17.85194
  17.85194   19.15009   29.88071   29.88071   31.30756   32.15219   39.94168   40.06886
  40.06886   43.86898   43.86898   52.05335   52.05335   55.26508   56.59688   56.59688
 kpt# 612, nband= 24, wtk=  1.00000, kpt=  0.1257  0.1257  0.1257 (reduced coord)
 -39.63595  -16.01685  -15.28252  -15.28252   11.56339   13.39859   13.39859   17.86500
  17.86500   19.24204   29.83636   29.83636   31.36561   31.99342   39.87334   40.19903
  40.19903   43.81923   43.81923   51.99140   51.99140   55.21919   56.61620   56.61620
 kpt# 613, nband= 24, wtk=  1.00000, kpt=  0.1272  0.1272  0.1272 (reduced coord)
 -39.63339  -16.02701  -15.28698  -15.28698   11.61419   13.37976   13.37976   17.87819
  17.87819   19.33452   29.79163   29.79163   31.42432   31.83520   39.80669   40.32923
  40.32923   43.77152   43.77152   51.91740   51.91740   55.17287   56.64793   56.64793
 kpt# 614, nband= 24, wtk=  1.00000, kpt=  0.1286  0.1286  0.1286 (reduced coord)
 -39.63085  -16.03693  -15.29151  -15.29151   11.66494   13.36135   13.36135   17.89150
  17.89150   19.42750   29.74658   29.74658   31.48370   31.67758   39.74174   40.45903
  40.45903   43.72623   43.72623   51.83226   51.83226   55.12616   56.69112   56.69112
 kpt# 615, nband= 24, wtk=  1.00000, kpt=  0.1301  0.1301  0.1301 (reduced coord)
 -39.62833  -16.04658  -15.29610  -15.29610   11.71562   13.34337   13.34337   17.90493
  17.90493   19.52096   29.70124   29.70124   31.52059   31.54373   39.67849   40.58790
  40.58790   43.68382   43.68382   51.73698   51.73698   55.07912   56.74475   56.74475
 kpt# 616, nband= 24, wtk=  1.00000, kpt=  0.1315  0.1315  0.1315 (reduced coord)
 -39.62583  -16.05598  -15.30074  -15.30074   11.76621   13.32582   13.32582   17.91846
  17.91846   19.61486   29.65568   29.65568   31.36428   31.60443   39.61697   40.71526
  40.71526   43.64486   43.64486   51.63257   51.63257   55.03179   56.80776   56.80776
 kpt# 617, nband= 24, wtk=  1.00000, kpt=  0.1329  0.1329  0.1329 (reduced coord)
 -39.62335  -16.06510  -15.30545  -15.30545   11.81669   13.30872   13.30872   17.93208
  17.93208   19.70919   29.60994   29.60994   31.20867   31.66579   39.55717   40.84037
  40.84037   43.61002   43.61002   51.52006   51.52006   54.98419   56.87909   56.87909
 kpt# 618, nband= 24, wtk=  1.00000, kpt=  0.1344  0.1344  0.1344 (reduced coord)
 -39.62090  -16.07416  -15.31090  -15.31090   11.86704   13.29199   13.29199   17.94571
  17.94571   19.80390   29.56406   29.56406   31.05355   31.72780   39.49898   40.96214
  40.96214   43.57959   43.57959   51.40012   51.40012   54.93614   56.95720   56.95720
 kpt# 619, nband= 24, wtk=  1.00000, kpt=  0.1358  0.1358  0.1358 (reduced coord)
 -39.61847  -16.08274  -15.31573  -15.31573   11.91727   13.27580   13.27580   17.95948
  17.95948   19.89897   29.51808   29.51808   30.89948   31.79049   39.44268   41.08003
  41.08003   43.55560   43.55560   51.27422   51.27422   54.88813   57.04217   57.04217
 kpt# 620, nband= 24, wtk=  1.00000, kpt=  0.1373  0.1373  0.1373 (reduced coord)
 -39.61606  -16.09103  -15.32061  -15.32061   11.96735   13.26007   13.26007   17.97331
  17.97331   19.99436   29.47204   29.47204   30.74623   31.85383   39.38813   41.19261
  41.19261   43.53868   43.53868   51.14290   51.14290   54.83996   57.13259   57.13259
 kpt# 621, nband= 24, wtk=  1.00000, kpt=  0.1387  0.1387  0.1387 (reduced coord)
 -39.61368  -16.09903  -15.32555  -15.32555   12.01725   13.24481   13.24481   17.98720
  17.98720   20.09006   29.42597   29.42597   30.59385   31.91783   39.33537   41.29853
  41.29853   43.53013   43.53013   51.00691   51.00691   54.79167   57.22764   57.22764
 kpt# 622, nband= 24, wtk=  1.00000, kpt=  0.1402  0.1402  0.1402 (reduced coord)
 -39.61133  -16.10674  -15.33055  -15.33055   12.06697   13.23003   13.23003   18.00112
  18.00112   20.18602   29.37991   29.37991   30.44236   31.98250   39.28439   41.39632
  41.39632   43.53139   43.53139   50.86693   50.86693   54.74329   57.32655   57.32655
 kpt# 623, nband= 24, wtk=  1.00000, kpt=  0.1416  0.1416  0.1416 (reduced coord)
 -39.60900  -16.11415  -15.33560  -15.33560   12.11648   13.21574   13.21574   18.01507
  18.01507   20.28221   29.33389   29.33389   30.29182   32.04782   39.23521   41.48444
  41.48444   43.54395   43.54395   50.72354   50.72354   54.69483   57.42864   57.42864
 kpt# 624, nband= 24, wtk=  1.00000, kpt=  0.1431  0.1431  0.1431 (reduced coord)
 -39.60670  -16.12127  -15.34071  -15.34071   12.16576   13.20193   13.20193   18.02905
  18.02905   20.37861   29.28794   29.28794   30.14225   32.11380   39.18786   41.56146
  41.56146   43.56922   43.56922   50.57729   50.57729   54.64633   57.53325   57.53325
 kpt# 625, nband= 24, wtk=  1.00000, kpt=  0.1445  0.1445  0.1445 (reduced coord)
 -39.60443  -16.12808  -15.34588  -15.34588   12.21479   13.18861   13.18861   18.04303
  18.04303   20.47517   29.24208   29.24208   29.99369   32.18044   39.14233   41.62619
  41.62619   43.60832   43.60832   50.42865   50.42865   54.59782   57.63979   57.63979
 kpt# 626, nband= 24, wtk=  1.00000, kpt=  0.1460  0.1460  0.1460 (reduced coord)
 -39.60219  -16.13458  -15.35110  -15.35110   12.26356   13.17579   13.17579   18.05702
  18.05702   20.57187   29.19633   29.19633   29.84619   32.24774   39.09865   41.67789
  41.67789   43.66196   43.66196   50.27805   50.27805   54.54932   57.74770   57.74770
 kpt# 627, nband= 24, wtk=  1.00000, kpt=  0.1474  0.1474  0.1474 (reduced coord)
 -39.59998  -16.14077  -15.35637  -15.35637   12.31204   13.16346   13.16346   18.07100
  18.07100   20.66867   29.15072   29.15072   29.69978   32.31570   39.05684   41.71641
  41.71641   43.73026   43.73026   50.12586   50.12586   54.50085   57.85644   57.85644
 kpt# 628, nband= 24, wtk=  1.00000, kpt=  0.1488  0.1488  0.1488 (reduced coord)
 -39.59780  -16.14664  -15.36170  -15.36170   12.36021   13.15164   13.15164   18.08496
  18.08496   20.76554   29.10528   29.10528   29.55450   32.38431   39.01690   41.74214
  41.74214   43.81276   43.81276   49.97244   49.97244   54.45243   57.96551   57.96551
 kpt# 629, nband= 24, wtk=  1.00000, kpt=  0.1503  0.1503  0.1503 (reduced coord)
 -39.59565  -16.15220  -15.36708  -15.36708   12.40805   13.14033   13.14033   18.09890
  18.09890   20.86244   29.06001   29.06001   29.41040   32.45358   38.97885   41.75599
  41.75599   43.90850   43.90850   49.81809   49.81809   54.40410   58.07440   58.07440
 kpt# 630, nband= 24, wtk=  1.00000, kpt=  0.1517  0.1517  0.1517 (reduced coord)
 -39.59354  -16.15790  -15.37266  -15.37266   12.45548   13.12948   13.12948   18.11278
  18.11278   20.95914   29.01493   29.01493   29.26743   32.52351   38.94272   41.75910
  41.75910   44.01619   44.01619   49.66278   49.66278   54.35560   58.18237   58.18237
 kpt# 631, nband= 24, wtk=  1.00000, kpt=  0.1532  0.1532  0.1532 (reduced coord)
 -39.59146  -16.16282  -15.37815  -15.37815   12.50259   13.11919   13.11919   18.12663
  18.12663   21.05600   28.97007   28.97007   29.12578   32.59410   38.90851   41.75298
  41.75298   44.13443   44.13443   49.50742   49.50742   54.30749   58.28940   58.28940
 kpt# 632, nband= 24, wtk=  1.00000, kpt=  0.1546  0.1546  0.1546 (reduced coord)
 -39.58941  -16.16741  -15.38369  -15.38369   12.54930   13.10941   13.10941   18.14044
  18.14044   21.15278   28.92544   28.92544   28.98542   32.66533   38.87624   41.73892
  41.73892   44.26176   44.26176   49.35196   49.35196   54.25951   58.39472   58.39472
 kpt# 633, nband= 24, wtk=  1.00000, kpt=  0.1561  0.1561  0.1561 (reduced coord)
 -39.58739  -16.17168  -15.38928  -15.38928   12.59558   13.10014   13.10014   18.15418
  18.15418   21.24946   28.84639   28.88105   28.88105   32.73723   38.84594   41.71820
  41.71820   44.39681   44.39681   49.19664   49.19664   54.21170   58.49781   58.49785
 kpt# 634, nband= 24, wtk=  1.00000, kpt=  0.1575  0.1575  0.1575 (reduced coord)
 -39.58541  -16.17562  -15.39491  -15.39491   12.64142   13.09139   13.09139   18.16785
  18.16785   21.34599   28.70874   28.83691   28.83691   32.80978   38.81761   41.69192
  41.69192   44.53834   44.53834   49.04173   49.04173   54.16406   58.59807   58.59813
 kpt# 635, nband= 24, wtk=  1.00000, kpt=  0.1590  0.1590  0.1590 (reduced coord)
 -39.58347  -16.17923  -15.40060  -15.40060   12.68678   13.08315   13.08315   18.18145
  18.18145   21.44234   28.57249   28.79303   28.79303   32.88298   38.79128   41.66106
  41.66106   44.68523   44.68523   48.88751   48.88751   54.11662   58.69492   58.69500
 kpt# 636, nband= 24, wtk=  1.00000, kpt=  0.1604  0.1604  0.1604 (reduced coord)
 -39.58156  -16.18250  -15.40633  -15.40633   12.73164   13.07544   13.07544   18.19496
  18.19496   21.53848   28.43770   28.74942   28.74942   32.95684   38.76696   41.62641
  41.62641   44.83646   44.83646   48.73429   48.73429   54.06940   58.78770   58.78782
 kpt# 637, nband= 24, wtk=  1.00000, kpt=  0.1618  0.1618  0.1618 (reduced coord)
 -39.57969  -16.18544  -15.41211  -15.41211   12.77597   13.06824   13.06824   18.20838
  18.20838   21.63436   28.30441   28.70609   28.70609   33.03134   38.74467   41.58867
  41.58867   44.99111   44.99111   48.58243   48.58243   54.02241   58.87574   58.87592
 kpt# 638, nband= 24, wtk=  1.00000, kpt=  0.1633  0.1633  0.1633 (reduced coord)
 -39.57785  -16.18805  -15.41794  -15.41794   12.81975   13.06155   13.06155   18.22170
  18.22170   21.72995   28.17266   28.66305   28.66305   33.10651   38.72442   41.54837
  41.54837   45.14823   45.14823   48.43240   48.43240   53.97567   58.95834   58.95861
 kpt# 639, nband= 24, wtk=  1.00000, kpt=  0.1647  0.1647  0.1647 (reduced coord)
 -39.57605  -16.19032  -15.42421  -15.42421   12.86294   13.05537   13.05537   18.23487
  18.23487   21.82515   28.04247   28.62021   28.62021   33.18230   38.70621   41.50574
  41.50574   45.30661   45.30661   48.28470   48.28470   53.92919   59.03448   59.03514
 kpt# 640, nband= 24, wtk=  1.00000, kpt=  0.1662  0.1662  0.1662 (reduced coord)
 -39.57429  -16.19225  -15.43012  -15.43012   12.90553   13.04972   13.04972   18.24797
  18.24797   21.92005   27.91394   28.57775   28.57775   33.25876   38.69011   41.46165
  41.46165   45.46565   45.46565   48.14030   48.14030   53.88300   59.10412   59.10494
 kpt# 641, nband= 24, wtk=  1.00000, kpt=  0.1676  0.1676  0.1676 (reduced coord)
 -39.57257  -16.19421  -15.43629  -15.43629   12.94752   13.04448   13.04448   18.26096
  18.26096   22.01405   27.78704   28.53576   28.53576   33.33588   38.67611   41.41610
  41.41610   45.62362   45.62362   48.00011   48.00011   53.83635   59.16684   59.16733
 kpt# 642, nband= 24, wtk=  1.00000, kpt=  0.1691  0.1691  0.1691 (reduced coord)
 -39.57088  -16.19548  -15.44229  -15.44229   12.98880   13.03986   13.03986   18.27381
  18.27381   22.10808   27.66190   28.49390   28.49390   33.41365   38.66422   41.36951
  41.36951   45.77862   45.77862   47.86629   47.86629   53.79078   59.22122   59.22161
 kpt# 643, nband= 24, wtk=  1.00000, kpt=  0.1705  0.1705  0.1705 (reduced coord)
 -39.56923  -16.19642  -15.44834  -15.44834   13.02937   13.03575   13.03575   18.28652
  18.28652   22.20164   27.53852   28.45235   28.45235   33.49206   38.65446   41.32202
  41.32202   45.92765   45.92765   47.74142   47.74142   53.74556   59.26722   59.26801
 kpt# 644, nband= 24, wtk=  1.00000, kpt=  0.1720  0.1720  0.1720 (reduced coord)
 -39.56762  -16.19701  -15.45442  -15.45442   13.03214   13.03214   13.06921   18.29909
  18.29909   22.29467   27.41696   28.41110   28.41110   33.57112   38.64684   41.27382
  41.27382   46.06608   46.06608   47.63003   47.63003   53.70068   59.30533   59.30604
 kpt# 645, nband= 24, wtk=  1.00000, kpt=  0.1734  0.1734  0.1734 (reduced coord)
 -39.56605  -16.19727  -15.46054  -15.46054   13.02905   13.02905   13.10828   18.31151
  18.31151   22.38715   27.29727   28.37015   28.37015   33.65083   38.64138   41.22507
  41.22507   46.18654   46.18654   47.53935   47.53935   53.65617   59.33510   59.33557
 kpt# 646, nband= 24, wtk=  1.00000, kpt=  0.1749  0.1749  0.1749 (reduced coord)
 -39.56452  -16.19718  -15.46671  -15.46671   13.02646   13.02646   13.14656   18.32378
  18.32378   22.47902   27.17949   28.32950   28.32950   33.73119   38.63808   41.17590
  41.17590   46.27813   46.27813   47.48019   47.48019   53.61204   59.35694   59.35698
 kpt# 647, nband= 24, wtk=  1.00000, kpt=  0.1763  0.1763  0.1763 (reduced coord)
 -39.56302  -16.19676  -15.47290  -15.47290   13.02438   13.02438   13.18401   18.33589
  18.33589   22.57026   27.06368   28.28916   28.28916   33.81220   38.63698   41.12643
  41.12643   46.32822   46.32822   47.46512   47.46512   53.56831   59.37147   59.37154
 kpt# 648, nband= 24, wtk=  1.00000, kpt=  0.1777  0.1777  0.1777 (reduced coord)
 -39.56157  -16.19601  -15.47914  -15.47914   13.02279   13.02279   13.22060   18.34784
  18.34784   22.66082   26.94990   28.24912   28.24912   33.89385   38.63807   41.07676
  41.07676   46.32923   46.32923   47.50164   47.50164   53.52499   59.37929   59.37936
 kpt# 649, nband= 24, wtk=  1.00000, kpt=  0.1792  0.1792  0.1792 (reduced coord)
 -39.56015  -16.19491  -15.48540  -15.48540   13.02170   13.02170   13.25630   18.35961
  18.35961   22.75065   26.83819   28.20937   28.20937   33.97614   38.64137   41.02697
  41.02697   46.28500   46.28500   47.58586   47.58586   53.48211   59.38097   59.38102
 kpt# 650, nband= 24, wtk=  1.00000, kpt=  0.1806  0.1806  0.1806 (reduced coord)
 -39.55877  -16.19284  -15.49165  -15.49165   13.02110   13.02110   13.29133   18.37123
  18.37123   22.83972   26.72877   28.16999   28.16999   34.05908   38.64689   40.97718
  40.97718   46.20730   46.20730   47.70607   47.70607   53.43968   59.37728   59.37793
 kpt# 651, nband= 24, wtk=  1.00000, kpt=  0.1821  0.1821  0.1821 (reduced coord)
 -39.55743  -16.19109  -15.49798  -15.49798   13.02099   13.02099   13.32513   18.38265
  18.38265   22.92796   26.62139   28.13082   28.13082   34.14267   38.65463   40.92738
  40.92738   46.10764   46.10764   47.85053   47.85053   53.39771   59.36853   59.36894
 kpt# 652, nband= 24, wtk=  1.00000, kpt=  0.1835  0.1835  0.1835 (reduced coord)
 -39.55613  -16.18901  -15.50435  -15.50435   13.02136   13.02136   13.35794   18.39388
  18.39388   23.01535   26.51627   28.09194   28.09194   34.22690   38.66461   40.87767
  40.87767   45.99440   45.99440   48.01091   48.01091   53.35621   59.35542   59.35552
 kpt# 653, nband= 24, wtk=  1.00000, kpt=  0.1850  0.1850  0.1850 (reduced coord)
 -39.55487  -16.18660  -15.51074  -15.51074   13.02221   13.02221   13.38971   18.40493
  18.40493   23.10181   26.41349   28.05333   28.05333   34.31177   38.67684   40.82810
  40.82810   45.87279   45.87279   48.18197   48.18197   53.31520   59.33849   59.33925
 kpt# 654, nband= 24, wtk=  1.00000, kpt=  0.1864  0.1864  0.1864 (reduced coord)
 -39.55365  -16.18386  -15.51716  -15.51716   13.02354   13.02354   13.42042   18.41578
  18.41578   23.18731   26.31311   28.01499   28.01499   34.39728   38.69131   40.77871
  40.77871   45.74603   45.74603   48.36049   48.36049   53.27470   59.31808   59.31877
 kpt# 655, nband= 24, wtk=  1.00000, kpt=  0.1879  0.1879  0.1879 (reduced coord)
 -39.55247  -16.18080  -15.52360  -15.52360   13.02533   13.02533   13.45004   18.42644
  18.42644   23.27177   26.21522   27.97692   27.97692   34.48343   38.70803   40.72955
  40.72955   45.61611   45.61611   48.54443   48.54443   53.23473   59.29464   59.29514
 kpt# 656, nband= 24, wtk=  1.00000, kpt=  0.1893  0.1893  0.1893 (reduced coord)
 -39.55132  -16.17742  -15.53007  -15.53007   13.02759   13.02759   13.47852   18.43689
  18.43689   23.35513   26.11990   27.93911   27.93911   34.57022   38.72701   40.68064
  40.68064   45.48433   45.48433   48.73249   48.73249   53.19530   59.26848   59.26883
 kpt# 657, nband= 24, wtk=  1.00000, kpt=  0.1908  0.1908  0.1908 (reduced coord)
 -39.55022  -16.17371  -15.53656  -15.53656   13.03030   13.03030   13.50583   18.44714
  18.44714   23.43731   26.02725   27.90155   27.90155   34.65765   38.74824   40.63203
  40.63203   45.35154   45.35154   48.92380   48.92380   53.15643   59.23987   59.24014
 kpt# 658, nband= 24, wtk=  1.00000, kpt=  0.1922  0.1922  0.1922 (reduced coord)
 -39.54915  -16.16969  -15.54308  -15.54308   13.03347   13.03347   13.53195   18.45718
  18.45718   23.51821   25.93739   27.86423   27.86423   34.74572   38.77172   40.58374
  40.58374   45.21835   45.21835   49.11774   49.11774   53.11813   59.20906   59.20930
 kpt# 659, nband= 24, wtk=  1.00000, kpt=  0.1936  0.1936  0.1936 (reduced coord)
 -39.54812  -16.16535  -15.54961  -15.54961   13.03708   13.03708   13.55683   18.46701
  18.46701   23.59774   25.85043   27.82715   27.82715   34.83443   38.79745   40.53580
  40.53580   45.08517   45.08517   49.31386   49.31386   53.08042   59.17627   59.17649
 kpt# 660, nband= 24, wtk=  1.00000, kpt=  0.1951  0.1951  0.1951 (reduced coord)
 -39.54713  -16.16071  -15.55617  -15.55617   13.04114   13.04114   13.58045   18.47662
  18.47662   23.67575   25.76654   27.79030   27.79030   34.92377   38.82542   40.48822
  40.48822   44.95232   44.95232   49.51185   49.51185   53.04332   59.14168   59.14191
 kpt# 661, nband= 24, wtk=  1.00000, kpt=  0.1965  0.1965  0.1965 (reduced coord)
 -39.54617  -16.15575  -15.56275  -15.56275   13.04562   13.04562   13.60278   18.48602
  18.48602   23.75211   25.68588   27.75366   27.75366   35.01375   38.85563   40.44102
  40.44102   44.82005   44.82005   49.71146   49.71146   53.00684   59.10545   59.10569
 kpt# 662, nband= 24, wtk=  1.00000, kpt=  0.1980  0.1980  0.1980 (reduced coord)
 -39.54525  -16.15138  -15.56965  -15.56965   13.05043   13.05043   13.62369   18.49513
  18.49513   23.82619   25.60850   27.71723   27.71723   35.10436   38.88798   40.39410
  40.39410   44.68833   44.68833   49.91217   49.91217   52.97082   59.06762   59.06813
 kpt# 663, nband= 24, wtk=  1.00000, kpt=  0.1994  0.1994  0.1994 (reduced coord)
 -39.54437  -16.14583  -15.57626  -15.57626   13.05575   13.05575   13.64334   18.50408
  18.50408   23.89858   25.53502   27.68101   27.68101   35.19560   38.92262   40.34771
  40.34771   44.55774   44.55774   50.11442   50.11442   52.93565   59.02854   59.02913
 kpt# 664, nband= 24, wtk=  1.00000, kpt=  0.2009  0.2009  0.2009 (reduced coord)
 -39.54353  -16.13999  -15.58289  -15.58289   13.06149   13.06149   13.66162   18.51280
  18.51280   23.96853   25.46561   27.64498   27.64498   35.28748   38.95947   40.30173
  40.30173   44.42818   44.42818   50.31777   50.31777   52.90115   58.98820   58.98886
 kpt# 665, nband= 24, wtk=  1.00000, kpt=  0.2023  0.2023  0.2023 (reduced coord)
 -39.54272  -16.13385  -15.58952  -15.58952   13.06763   13.06763   13.67850   18.52130
  18.52130   24.03565   25.40071   27.60913   27.60913   35.37999   38.99849   40.25618
  40.25618   44.29977   44.29977   50.52210   50.52210   52.86736   58.94673   58.94743
 kpt# 666, nband= 24, wtk=  1.00000, kpt=  0.2038  0.2038  0.2038 (reduced coord)
 -39.54194  -16.12743  -15.59617  -15.59617   13.07417   13.07417   13.69395   18.52957
  18.52957   24.09938   25.34087   27.57346   27.57346   35.47313   39.03968   40.21105
  40.21105   44.17261   44.17261   50.72731   50.72731   52.83427   58.90420   58.90491
 kpt# 667, nband= 24, wtk=  1.00000, kpt=  0.2052  0.2052  0.2052 (reduced coord)
 -39.54120  -16.12072  -15.60283  -15.60283   13.08109   13.08109   13.70795   18.53760
  18.53760   24.15903   25.28682   27.53795   27.53795   35.56689   39.08302   40.16634
  40.16634   44.04677   44.04677   50.93329   50.93329   52.80192   58.86071   58.86137
 kpt# 668, nband= 24, wtk=  1.00000, kpt=  0.2066  0.2066  0.2066 (reduced coord)
 -39.54050  -16.11405  -15.60952  -15.60952   13.08837   13.08837   13.72046   18.54540
  18.54540   24.21351   25.23938   27.50260   27.50260   35.66129   39.12845   40.12202
  40.12202   43.92233   43.92233   51.13991   51.13991   52.77016   58.81637   58.81695
 kpt# 669, nband= 24, wtk=  1.00000, kpt=  0.2081  0.2081  0.2081 (reduced coord)
 -39.53983  -16.10680  -15.61619  -15.61619   13.09604   13.09604   13.73151   18.55296
  18.55296   24.26212   25.19985   27.46741   27.46741   35.75631   39.17598   40.07814
  40.07814   43.79938   43.79938   51.34713   51.34713   52.73933   58.77124   58.77176
 kpt# 670, nband= 24, wtk=  1.00000, kpt=  0.2095  0.2095  0.2095 (reduced coord)
 -39.53919  -16.09928  -15.62287  -15.62287   13.10407   13.10407   13.74105   18.56029
  18.56029   24.30338   25.16944   27.43235   27.43235   35.85196   39.22558   40.03465
  40.03465   43.67798   43.67798   51.55483   51.55483   52.70929   58.72541   58.72587
 kpt# 671, nband= 24, wtk=  1.00000, kpt=  0.2110  0.2110  0.2110 (reduced coord)
 -39.53858  -16.09149  -15.62955  -15.62955   13.11245   13.11245   13.74909   18.56738
  18.56738   24.33599   25.14946   27.39743   27.39743   35.94823   39.27720   39.99155
  39.99155   43.55820   43.55820   51.76290   51.76290   52.68006   58.67898   58.67939
 kpt# 672, nband= 24, wtk=  1.00000, kpt=  0.2124  0.2124  0.2124 (reduced coord)
 -39.53801  -16.08345  -15.63623  -15.63623   13.12117   13.12117   13.75560   18.57422
  18.57422   24.35894   25.14096   27.36264   27.36264   36.04513   39.33082   39.94880
  39.94880   43.44010   43.44010   51.97125   51.97125   52.65165   58.63204   58.63240
 kpt# 673, nband= 24, wtk=  1.00000, kpt=  0.2139  0.2139  0.2139 (reduced coord)
 -39.53747  -16.07515  -15.64291  -15.64291   13.13022   13.13022   13.76059   18.58083
  18.58083   24.37180   25.14437   27.32797   27.32797   36.14264   39.38638   39.90638
  39.90638   43.32376   43.32376   52.17975   52.17975   52.62410   58.58470   58.58502
 kpt# 674, nband= 24, wtk=  1.00000, kpt=  0.2153  0.2153  0.2153 (reduced coord)
 -39.53696  -16.06661  -15.64959  -15.64959   13.13959   13.13959   13.76404   18.58719
  18.58719   24.37501   25.15927   27.29341   27.29341   36.24078   39.44386   39.86427
  39.86427   43.20924   43.20924   52.38827   52.38827   52.59741   58.53706   58.53734
 kpt# 675, nband= 24, wtk=  1.00000, kpt=  0.2168  0.2168  0.2168 (reduced coord)
 -39.53648  -16.05783  -15.65627  -15.65627   13.14928   13.14928   13.76596   18.59331
  18.59331   24.36983   25.18443   27.25895   27.25895   36.33954   39.50321   39.82243
  39.82243   43.09662   43.09662   52.57161   52.59668   52.59668   58.48926   58.48950
 kpt# 676, nband= 24, wtk=  1.00000, kpt=  0.2182  0.2182  0.2182 (reduced coord)
 -39.53603  -16.04814  -15.66290  -15.66290   13.15926   13.15926   13.76665   18.59920
  18.59920   24.35794   25.21817   27.22465   27.22465   36.43891   39.56440   39.78082
  39.78082   42.98602   42.98602   52.54675   52.80494   52.80494   58.44150   58.44151
 kpt# 677, nband= 24, wtk=  1.00000, kpt=  0.2197  0.2197  0.2197 (reduced coord)
 -39.53561  -16.03890  -15.66957  -15.66957   13.16954   13.16954   13.76550   18.60482
  18.60482   24.34110   25.25872   27.19039   27.19039   36.53890   39.62734   39.73939
  39.73939   42.87742   42.87742   52.52280   53.01261   53.01261   58.39380   58.39380
 kpt# 678, nband= 24, wtk=  1.00000, kpt=  0.2211  0.2211  0.2211 (reduced coord)
 -39.53521  -16.02945  -15.67623  -15.67623   13.18009   13.18009   13.76284   18.61020
  18.61020   24.32092   25.30451   27.15623   27.15623   36.63951   39.69199   39.69809
  39.69809   42.77094   42.77094   52.49980   53.21959   53.21959   58.34645   58.34645
 kpt# 679, nband= 24, wtk=  1.00000, kpt=  0.2225  0.2225  0.2225 (reduced coord)
 -39.53485  -16.01977  -15.68288  -15.68288   13.19091   13.19091   13.75866   18.61533
  18.61533   24.29869   25.35424   27.12215   27.12215   36.74072   39.65687   39.65687
  39.75830   42.66667   42.66667   52.47777   53.42563   53.42563   58.29967   58.29967
 kpt# 680, nband= 24, wtk=  1.00000, kpt=  0.2240  0.2240  0.2240 (reduced coord)
 -39.53451  -16.00989  -15.68952  -15.68952   13.20199   13.20199   13.75299   18.62021
  18.62021   24.27544   25.40691   27.08816   27.08816   36.84255   39.61566   39.61566
  39.82621   42.56470   42.56470   52.45674   53.63042   53.63042   58.25374   58.25375
 kpt# 681, nband= 24, wtk=  1.00000, kpt=  0.2254  0.2254  0.2254 (reduced coord)
 -39.53419  -15.99981  -15.69615  -15.69615   13.21332   13.21332   13.74585   18.62484
  18.62484   24.25192   25.46175   27.05426   27.05426   36.94499   39.57439   39.57439
  39.89566   42.46512   42.46512   52.43672   53.83359   53.83359   58.20900   58.20900
 kpt# 682, nband= 24, wtk=  1.00000, kpt=  0.2269  0.2269  0.2269 (reduced coord)
 -39.53391  -15.98954  -15.70276  -15.70276   13.22487   13.22487   13.73725   18.62922
  18.62922   24.22869   25.51820   27.02044   27.02044   37.04804   39.53298   39.53298
  39.96659   42.36803   42.36803   52.41774   54.03470   54.03470   58.16585   58.16585
 kpt# 683, nband= 24, wtk=  1.00000, kpt=  0.2283  0.2283  0.2283 (reduced coord)
 -39.53364  -15.97907  -15.70936  -15.70936   13.23665   13.23665   13.72723   18.63334
  18.63334   24.20617   25.57587   26.98670   26.98670   37.15170   39.49136   39.49136
  40.03891   42.27352   42.27352   52.39982   54.23320   54.23320   58.12479   58.12479
 kpt# 684, nband= 24, wtk=  1.00000, kpt=  0.2298  0.2298  0.2298 (reduced coord)
 -39.53340  -15.96843  -15.71594  -15.71594   13.24864   13.24864   13.71580   18.63721
  18.63721   24.18466   25.63444   26.95304   26.95304   37.25596   39.44944   39.44944
  40.11257   42.18170   42.18170   52.38297   54.42841   54.42841   58.08645   58.08645
 kpt# 685, nband= 24, wtk=  1.00000, kpt=  0.2312  0.2312  0.2312 (reduced coord)
 -39.53318  -15.95762  -15.72250  -15.72250   13.26082   13.26082   13.70301   18.64082
  18.64082   24.16436   25.69369   26.91947   26.91947   37.36082   39.40713   39.40713
  40.18750   42.09268   42.09268   52.36723   54.61951   54.61951   58.05160   58.05160
 kpt# 686, nband= 24, wtk=  1.00000, kpt=  0.2327  0.2327  0.2327 (reduced coord)
 -39.53299  -15.94664  -15.72904  -15.72904   13.27319   13.27319   13.68888   18.64418
  18.64418   24.14544   25.75347   26.88599   26.88599   37.46629   39.36432   39.36432
  40.26360   42.00657   42.00657   52.35259   54.80546   54.80546   58.02119   58.02119
 kpt# 687, nband= 24, wtk=  1.00000, kpt=  0.2341  0.2341  0.2341 (reduced coord)
 -39.53281  -15.93550  -15.73556  -15.73556   13.28572   13.28572   13.67345   18.64727
  18.64727   24.12800   25.81367   26.85260   26.85260   37.57235   39.32093   39.32093
  40.34081   41.92347   41.92347   52.33909   54.98501   54.98501   57.99638   57.99638
 kpt# 688, nband= 24, wtk=  1.00000, kpt=  0.2355  0.2355  0.2355 (reduced coord)
 -39.53266  -15.92421  -15.74206  -15.74206   13.29842   13.29842   13.65676   18.65011
  18.65011   24.11210   25.87420   26.81930   26.81930   37.67901   39.27685   39.27685
  40.41904   41.84351   41.84351   52.32674   55.15660   55.15660   57.97857   57.97857
 kpt# 689, nband= 24, wtk=  1.00000, kpt=  0.2370  0.2370  0.2370 (reduced coord)
 -39.53252  -15.91278  -15.74853  -15.74853   13.31125   13.31125   13.63885   18.65268
  18.65268   24.09780   25.93502   26.78611   26.78611   37.78627   39.23198   39.23198
  40.49820   41.76678   41.76678   52.31555   55.31841   55.31841   57.96943   57.96943
 kpt# 690, nband= 24, wtk=  1.00000, kpt=  0.2384  0.2384  0.2384 (reduced coord)
 -39.53240  -15.90122  -15.75498  -15.75498   13.32422   13.32422   13.61978   18.65500
  18.65500   24.08510   25.99609   26.75302   26.75302   37.89412   39.18622   39.18622
  40.57822   41.69341   41.69341   52.30554   55.46831   55.46831   57.97082   57.97082
 kpt# 691, nband= 24, wtk=  1.00000, kpt=  0.2399  0.2399  0.2399 (reduced coord)
 -39.53230  -15.88954  -15.76139  -15.76139   13.33730   13.33730   13.59957   18.65704
  18.65704   24.07401   26.05740   26.72005   26.72005   38.00256   39.13948   39.13948
  40.65899   41.62348   41.62348   52.29671   55.60399   55.60399   57.98470   57.98470
 kpt# 692, nband= 24, wtk=  1.00000, kpt=  0.2413  0.2413  0.2413 (reduced coord)
 -39.53222  -15.87790  -15.76808  -15.76808   13.35042   13.35042   13.57825   18.65876
  18.65876   24.06451   26.11894   26.68716   26.68716   38.11158   39.09164   39.09164
  40.74038   41.55698   41.55698   52.28907   55.72266   55.72266   58.01268   58.01268
 kpt# 693, nband= 24, wtk=  1.00000, kpt=  0.2428  0.2428  0.2428 (reduced coord)
 -39.53215  -15.86628  -15.77469  -15.77469   13.36363   13.36363   13.55589   18.66022
  18.66022   24.05659   26.18065   26.65443   26.65443   38.22119   39.04264   39.04264
  40.82230   41.49412   41.49412   52.28263   55.82282   55.82282   58.05613   58.05613
 kpt# 694, nband= 24, wtk=  1.00000, kpt=  0.2442  0.2442  0.2442 (reduced coord)
 -39.53210  -15.85427  -15.78102  -15.78102   13.37697   13.37697   13.53260   18.66146
  18.66146   24.05021   26.24270   26.62187   26.62187   38.33140   38.99242   38.99242
  40.90480   41.43510   41.43510   52.27739   55.90366   55.90366   58.11522   58.11522
 kpt# 695, nband= 24, wtk=  1.00000, kpt=  0.2457  0.2457  0.2457 (reduced coord)
 -39.53206  -15.84279  -15.78739  -15.78739   13.39035   13.39035   13.50836   18.66240
  18.66240   24.04534   26.30444   26.58945   26.58945   38.44218   38.94085   38.94085
  40.98743   41.37985   41.37985   52.27325   55.96409   55.96409   58.18813   58.19303
 kpt# 696, nband= 24, wtk=  1.00000, kpt=  0.2471  0.2471  0.2471 (reduced coord)
 -39.53203  -15.83062  -15.79366  -15.79366   13.40380   13.40380   13.48329   18.66309
  18.66309   24.04192   26.36705   26.55721   26.55721   38.55355   38.88797   38.88797
  41.07057   41.32845   41.32845   52.27039   56.00521   56.00521   58.27090   58.27935
 kpt# 697, nband= 24, wtk=  1.00000, kpt=  0.2486  0.2486  0.2486 (reduced coord)
 -39.53201  -15.81838  -15.79988  -15.79988   13.41728   13.41728   13.45741   18.66351
  18.66351   24.03991   26.43000   26.52516   26.52516   38.66549   38.83370   38.83370
  41.15389   41.28091   41.28091   52.26868   56.02833   56.02833   58.35656   58.38824
 kpt# 698, nband= 24, wtk=  1.00000, kpt=  0.2500  0.2500  0.2500 (reduced coord)
 -39.53201  -15.80607  -15.80607  -15.80607   13.43077   13.43077   13.43077   18.66365
  18.66365   24.03925   26.49330   26.49330   26.49330   38.77801   38.77801   38.77801
  41.23727   41.23727   41.23727   52.26812   56.03554   56.03554   58.43467   58.43488
 kpt# 699, nband= 24, wtk=  1.00000, kpt=  0.2500  0.2465  0.2500 (reduced coord)
 -39.53201  -15.81675  -15.80604  -15.79535   13.40724   13.43065   13.45408   18.66346
  18.66356   24.03990   26.43822   26.49370   26.54840   38.67992   38.77736   38.87559
  41.16599   41.23911   41.31061   52.26868   56.02865   56.02873   58.30867   58.46479
 kpt# 700, nband= 24, wtk=  1.00000, kpt=  0.2500  0.2429  0.2500 (reduced coord)
 -39.53203  -15.82740  -15.80595  -15.78459   13.38351   13.43027   13.47714   18.66287
  18.66330   24.04185   26.38315   26.49489   26.60353   38.58154   38.77542   38.97243
  41.09699   41.24464   41.38582   52.27034   56.00794   56.00843   58.17782   58.44308
 kpt# 701, nband= 24, wtk=  1.00000, kpt=  0.2500  0.2394  0.2500 (reduced coord)
 -39.53205  -15.83799  -15.80581  -15.77381   13.35958   13.42964   13.49995   18.66190
  18.66287   24.04510   26.32808   26.49688   26.65870   38.48304   38.77213   39.06828
  41.03049   41.25394   41.46270   52.27310   55.97324   55.97494   58.04807   58.39571
 kpt# 702, nband= 24, wtk=  1.00000, kpt=  0.2500  0.2358  0.2500 (reduced coord)
 -39.53209  -15.84830  -15.80555  -15.76277   13.33554   13.42877   13.52251   18.66058
  18.66229   24.04964   26.27320   26.49967   26.71392   38.38458   38.76746   39.16285
  40.96684   41.26723   41.54110   52.27696   55.92455   55.92899   57.92302   58.33176
 kpt# 703, nband= 24, wtk=  1.00000, kpt=  0.2500  0.2323  0.2500 (reduced coord)
 -39.53213  -15.85855  -15.80517  -15.75179   13.31132   13.42767   13.54479   18.65887
  18.66152   24.05546   26.21828   26.50328   26.76921   38.28632   38.76124   39.25584
  40.90617   41.28461   41.62085   52.28187   55.86146   55.87119   57.80466   58.29519
 kpt# 704, nband= 24, wtk=  1.00000, kpt=  0.2500  0.2287  0.2500 (reduced coord)
 -39.53219  -15.86897  -15.80486  -15.74096   13.28691   13.42630   13.56675   18.65672
  18.66058   24.06256   26.16316   26.50766   26.82456   38.18834   38.75337   39.34685
  40.84868   41.30620   41.70178   52.28774   55.78411   55.80182   57.69458   58.25084
 kpt# 705, nband= 24, wtk=  1.00000, kpt=  0.2500  0.2252  0.2500 (reduced coord)
 -39.53225  -15.87901  -15.80430  -15.73010   13.26237   13.42474   13.58844   18.65421
  18.65950   24.07092   26.10821   26.51283   26.88002   38.09078   38.74373   39.43554
  40.79482   41.33239   41.78386   52.29459   55.69308   55.72255   57.59386   58.21164
 kpt# 706, nband= 24, wtk=  1.00000, kpt=  0.2500  0.2216  0.2500 (reduced coord)
 -39.53232  -15.88925  -15.80356  -15.71912   13.23774   13.42293   13.60979   18.65130
  18.65826   24.08052   26.05307   26.51894   26.93557   37.99374   38.73217   39.52152
  40.74466   41.36350   41.86688   52.30228   55.58898   55.63400   57.50282   58.19185
 kpt# 707, nband= 24, wtk=  1.00000, kpt=  0.2500  0.2181  0.2500 (reduced coord)
 -39.53241  -15.89945  -15.80307  -15.70828   13.21299   13.42083   13.63078   18.64794
  18.65685   24.09135   25.99786   26.52572   26.99119   37.89728   38.71852   39.60437
  40.69854   41.39970   41.95063   52.31074   55.47284   55.53667   57.42076   58.14672
 kpt# 708, nband= 24, wtk=  1.00000, kpt=  0.2500  0.2145  0.2500 (reduced coord)
 -39.53250  -15.90953  -15.80253  -15.69724   13.18821   13.41850   13.65144   18.64418
  18.65535   24.10339   25.94265   26.53331   27.04693   37.80148   38.70266   39.68372
  40.65679   41.44138   42.03510   52.31986   55.34615   55.43193   57.34782   58.10949
 kpt# 709, nband= 24, wtk=  1.00000, kpt=  0.2500  0.2110  0.2500 (reduced coord)
 -39.53260  -15.91957  -15.80193  -15.68643   13.16332   13.41594   13.67172   18.63999
  18.65366   24.11659   25.88739   26.54171   27.10278   37.70641   38.68441   39.75920
  40.61948   41.48882   42.12017   52.32949   55.21035   55.32066   57.28207   58.08142
 kpt# 710, nband= 24, wtk=  1.00000, kpt=  0.2500  0.2074  0.2500 (reduced coord)
 -39.53271  -15.92952  -15.80128  -15.67563   13.13839   13.41316   13.69164   18.63539
  18.65185   24.13095   25.83213   26.55092   27.15876   37.61213   38.66369   39.83052
  40.58686   41.54228   42.20576   52.33944   55.06706   55.20371   57.22306   58.05595
 kpt# 711, nband= 24, wtk=  1.00000, kpt=  0.2500  0.2039  0.2500 (reduced coord)
 -39.53283  -15.93933  -15.80050  -15.66471   13.11345   13.41015   13.71118   18.63036
  18.64993   24.14642   25.77690   26.56106   27.21489   37.51873   38.64045   39.89744
  40.55912   41.60194   42.29180   52.34948   54.91783   55.08185   57.17005   58.03316
 kpt# 712, nband= 24, wtk=  1.00000, kpt=  0.2500  0.2004  0.2500 (reduced coord)
 -39.53297  -15.94907  -15.79974  -15.65397   13.08848   13.40693   13.73033   18.62490
  18.64788   24.16294   25.72166   26.57190   27.27114   37.42618   38.61460   39.95981
  40.53629   41.66785   42.37818   52.35928   54.76416   54.95571   57.12171   58.01293
 kpt# 713, nband= 24, wtk=  1.00000, kpt=  0.2500  0.1968  0.2500 (reduced coord)
 -39.53311  -15.95871  -15.79892  -15.64327   13.06351   13.40350   13.74907   18.61899
  18.64573   24.18048   25.66647   26.58357   27.32755   37.33457   38.58616   40.01759
  40.51846   41.74003   42.46483   52.36842   54.60751   54.82591   57.07749   57.99464
 kpt# 714, nband= 24, wtk=  1.00000, kpt=  0.2500  0.1933  0.2500 (reduced coord)
 -39.53326  -15.96825  -15.79804  -15.63261   13.03856   13.39987   13.76740   18.61264
  18.64349   24.19897   25.61137   26.59606   27.38411   37.24392   38.55520   40.07083
  40.50562   41.81839   42.55170   52.37638   54.44931   54.69298   57.03677   57.97821
 kpt# 715, nband= 24, wtk=  1.00000, kpt=  0.2500  0.1897  0.2500 (reduced coord)
 -39.53341  -15.97766  -15.79711  -15.62199   13.01366   13.39603   13.78532   18.60583
  18.64116   24.21833   25.55642   26.60938   27.44083   37.15427   38.52181   40.11969
  40.49772   41.90274   42.63870   52.38240   54.29105   54.55737   56.99902   57.96346
 kpt# 716, nband= 24, wtk=  1.00000, kpt=  0.2500  0.1862  0.2500 (reduced coord)
 -39.53358  -15.98696  -15.79589  -15.61141   12.98881   13.39204   13.80281   18.59857
  18.63878   24.23846   25.50174   26.62363   27.49775   37.06565   38.48614   40.16444
  40.49467   41.99284   42.72584   52.38551   54.13440   54.41963   56.96389   57.95042
 kpt# 717, nband= 24, wtk=  1.00000, kpt=  0.2500  0.1826  0.2500 (reduced coord)
 -39.53376  -15.99614  -15.79485  -15.60090   12.96403   13.38783   13.81987   18.59083
  18.63632   24.25925   25.44731   26.63863   27.55480   36.97809   38.44834   40.20522
  40.49630   42.08833   42.81296   52.38430   53.98112   54.27983   56.93090   57.93852
 kpt# 718, nband= 24, wtk=  1.00000, kpt=  0.2500  0.1791  0.2500 (reduced coord)
 -39.53395  -16.00519  -15.79376  -15.59046   12.93934   13.38344   13.83648   18.58261
  18.63381   24.28055   25.39332   26.65447   27.61203   36.89160   38.40862   40.24243
  40.50246   42.18889   42.90005   52.37692   53.83356   54.13841   56.89987   57.92819
 kpt# 719, nband= 24, wtk=  1.00000, kpt=  0.2500  0.1755  0.2500 (reduced coord)
 -39.53414  -16.01411  -15.79262  -15.58008   12.91476   13.37889   13.85264   18.57391
  18.63126   24.30215   25.33993   26.67116   27.66943   36.80622   38.36720   40.27640
  40.51295   42.29416   42.98707   52.36093   53.69451   53.99563   56.87059   57.91865
 kpt# 720, nband= 24, wtk=  1.00000, kpt=  0.2500  0.1720  0.2500 (reduced coord)
 -39.53434  -16.02290  -15.79143  -15.56978   12.89030   13.37417   13.86836   18.56472
  18.62868   24.32382   25.28736   26.68869   27.72702   36.72195   38.32432   40.30745
  40.52755   42.40376   43.07397   52.33321   53.56736   53.85173   56.84292   57.91021
 kpt# 721, nband= 24, wtk=  1.00000, kpt=  0.2500  0.1684  0.2500 (reduced coord)
 -39.53456  -16.03165  -15.79018  -15.55958   12.86597   13.36930   13.88358   18.55503
  18.62608   24.34521   25.23592   26.70709   27.78476   36.63882   38.28020   40.33590
  40.54603   42.51736   43.16070   52.29027   53.45578   53.70691   56.81675   57.90280
 kpt# 722, nband= 24, wtk=  1.00000, kpt=  0.2500  0.1649  0.2500 (reduced coord)
 -39.53478  -16.04015  -15.78889  -15.54945   12.84179   13.36428   13.89837   18.54483
  18.62348   24.36588   25.18602   26.72634   27.84270   36.55684   38.23510   40.36206
  40.56818   42.63462   43.24724   52.22900   53.36314   53.56135   56.79202   57.89677
 kpt# 723, nband= 24, wtk=  1.00000, kpt=  0.2500  0.1613  0.2500 (reduced coord)
 -39.53501  -16.04872  -15.78756  -15.53942   12.81778   13.35913   13.91262   18.53410
  18.62088   24.38524   25.13824   26.74644   27.90081   36.47602   38.18924   40.38621
  40.59376   42.75522   43.33355   52.14758   53.29135   53.41512   56.76867   57.89089
 kpt# 724, nband= 24, wtk=  1.00000, kpt=  0.2500  0.1578  0.2500 (reduced coord)
 -39.53525  -16.05694  -15.78616  -15.52947   12.79396   13.35385   13.92649   18.52286
  18.61831   24.40247   25.09336   26.76742   27.95911   36.39637   38.14286   40.40860
  40.62256   42.87891   43.41959   52.04636   53.24017   53.26852   56.74671   57.88620
 kpt# 725, nband= 24, wtk=  1.00000, kpt=  0.2500  0.1543  0.2500 (reduced coord)
 -39.53549  -16.06500  -15.78472  -15.51961   12.77033   13.34844   13.93989   18.51109
  18.61577   24.41651   25.05241   26.78927   28.01758   36.31790   38.09616   40.42946
  40.65435   43.00543   43.50532   51.92766   53.12159   53.20737   56.72612   57.88237
 kpt# 726, nband= 24, wtk=  1.00000, kpt=  0.2500  0.1507  0.2500 (reduced coord)
 -39.53575  -16.07291  -15.78322  -15.50987   12.74692   13.34293   13.95283   18.49878
  18.61327   24.42600   25.01672   26.81200   28.07623   36.24062   38.04935   40.44899
  40.68893   43.13456   43.59073   51.79478   52.97445   53.18969   56.70691   57.87929
 kpt# 727, nband= 24, wtk=  1.00000, kpt=  0.2500  0.1472  0.2500 (reduced coord)
 -39.53601  -16.08048  -15.78167  -15.50003   12.72379   13.33732   13.96530   18.48593
  18.61084   24.42939   24.98797   26.83561   28.13506   36.16454   38.00275   40.46736
  40.72611   43.26609   43.67578   51.65117   52.82721   53.18383   56.68920   57.87694
 kpt# 728, nband= 24, wtk=  1.00000, kpt=  0.2500  0.1436  0.2500 (reduced coord)
 -39.53628  -16.08806  -15.78009  -15.49051   12.70084   13.33161   13.97730   18.47253
  18.60846   24.42512   24.96737   26.86010   28.19405   36.08965   37.95628   40.48473
  40.76568   43.39983   43.76044   51.49958   52.67992   53.18682   56.67286   57.87530
 kpt# 729, nband= 24, wtk=  1.00000, kpt=  0.2500  0.1401  0.2500 (reduced coord)
 -39.53656  -16.09548  -15.77845  -15.48111   12.67816   13.32581   13.98883   18.45857
  18.60615   24.41211   24.95613   26.88548   28.25321   36.01597   37.91023   40.50124
  40.80746   43.53562   43.84468   51.34236   52.53269   53.19644   56.65801   57.87435
 kpt# 730, nband= 24, wtk=  1.00000, kpt=  0.2500  0.1365  0.2500 (reduced coord)
 -39.53685  -16.10284  -15.77674  -15.47150   12.65580   13.31996   13.99981   18.44407
  18.60394   24.39009   24.95459   26.91170   28.31254   35.94351   37.86485   40.51703
  40.85130   43.67338   43.92853   51.18140   52.38559   53.21105   56.64486   57.87407
 kpt# 731, nband= 24, wtk=  1.00000, kpt=  0.2500  0.1330  0.2500 (reduced coord)
 -39.53714  -16.10992  -15.77502  -15.46236   12.63366   13.31403   14.01042   18.42898
  18.60181   24.35964   24.96193   26.93885   28.37202   35.87225   37.82009   40.53215
  40.89700   43.81288   44.01187   51.01759   52.23867   53.22917   56.63318   57.87447
 kpt# 732, nband= 24, wtk=  1.00000, kpt=  0.2500  0.1294  0.2500 (reduced coord)
 -39.53744  -16.11669  -15.77322  -15.45327   12.61182   13.30806   14.02061   18.41331
  18.59982   24.32202   24.97702   26.96690   28.43167   35.80220   37.77620   40.54675
  40.94443   43.95405   44.09475   50.85224   52.09203   53.24991   56.62318   57.87545
 kpt# 733, nband= 24, wtk=  1.00000, kpt=  0.2500  0.1259  0.2500 (reduced coord)
 -39.53775  -16.12342  -15.77140  -15.44416   12.59034   13.30203   14.03031   18.39708
  18.59791   24.27853   24.99844   26.99584   28.49147   35.73337   37.73327   40.56085
  40.99343   44.09679   44.17713   50.68604   51.94568   53.27251   56.61505   57.87715
 kpt# 734, nband= 24, wtk=  1.00000, kpt=  0.2500  0.1223  0.2500 (reduced coord)
 -39.53807  -16.13009  -15.76955  -15.43545   12.56911   13.29596   14.03952   18.38026
  18.59612   24.23045   25.02488   27.02567   28.55142   35.66574   37.69143   40.57455
  41.04385   44.24099   44.25883   50.51926   51.79969   53.29614   56.60861   57.87923
 kpt# 735, nband= 24, wtk=  1.00000, kpt=  0.2500  0.1188  0.2500 (reduced coord)
 -39.53839  -16.13646  -15.76766  -15.42688   12.54822   13.28987   14.04834   18.36285
  18.59446   24.17879   25.05534   27.05640   28.61151   35.59932   37.65076   40.58789
  41.09554   44.33996   44.38659   50.35265   51.65411   53.32041   56.60408   57.88199
 kpt# 736, nband= 24, wtk=  1.00000, kpt=  0.2500  0.1152  0.2500 (reduced coord)
 -39.53872  -16.14264  -15.76573  -15.41847   12.52767   13.28375   14.05673   18.34486
  18.59294   24.12433   25.08898   27.08802   28.67176   35.53410   37.61138   40.60094
  41.14839   44.42043   44.53350   50.18660   51.50899   53.34484   56.60153   57.88527
 kpt# 737, nband= 24, wtk=  1.00000, kpt=  0.2500  0.1117  0.2500 (reduced coord)
 -39.53906  -16.14863  -15.76376  -15.41021   12.50747   13.27763   14.06469   18.32628
  18.59156   24.06764   25.12521   27.12054   28.73214   35.47009   37.57336   40.61374
  41.20225   44.50017   44.68164   50.02146   51.36437   53.36904   56.60103   57.88901
 kpt# 738, nband= 24, wtk=  1.00000, kpt=  0.2500  0.1082  0.2500 (reduced coord)
 -39.53940  -16.15431  -15.76165  -15.40184   12.48767   13.27155   14.07226   18.30713
  18.59034   24.00923   25.16360   27.15396   28.79269   35.40727   37.53680   40.62635
  41.25702   44.57921   44.83105   49.85774   51.22043   53.39293   56.60274   57.89321
 kpt# 739, nband= 24, wtk=  1.00000, kpt=  0.2500  0.1046  0.2500 (reduced coord)
 -39.53975  -16.15992  -15.75960  -15.39392   12.46821   13.26545   14.07941   18.28737
  18.58927   23.94928   25.20371   27.18828   28.85336   35.34565   37.50174   40.63876
  41.31253   44.65726   44.98148   49.69539   51.07695   53.41560   56.60648   57.89785
 kpt# 740, nband= 24, wtk=  1.00000, kpt=  0.2500  0.1011  0.2500 (reduced coord)
 -39.54011  -16.16533  -15.75752  -15.38618   12.44913   13.25937   14.08616   18.26701
  18.58836   23.88809   25.24532   27.22349   28.91416   35.28521   37.46827   40.65102
  41.36868   44.73430   45.13295   49.53492   50.93410   53.43703   56.61242   57.90282
 kpt# 741, nband= 24, wtk=  1.00000, kpt=  0.2500  0.0975  0.2500 (reduced coord)
 -39.54047  -16.17054  -15.75540  -15.37860   12.43043   13.25331   14.09253   18.24607
  18.58761   23.82585   25.28821   27.25959   28.97510   35.22595   37.43643   40.66315
  41.42534   44.81018   45.28542   49.37664   50.79192   53.45693   56.62058   57.90807
 kpt# 742, nband= 24, wtk=  1.00000, kpt=  0.2500  0.0940  0.2500 (reduced coord)
 -39.54084  -16.17556  -15.75325  -15.37121   12.41214   13.24730   14.09853   18.22454
  18.58703   23.76269   25.33221   27.29659   29.03618   35.16786   37.40629   40.67516
  41.48241   44.88472   45.43882   49.22091   50.65044   53.47502   56.63095   57.91354
 kpt# 743, nband= 24, wtk=  1.00000, kpt=  0.2500  0.0904  0.2500 (reduced coord)
 -39.54121  -16.18015  -15.75084  -15.36369   12.39428   13.24138   14.10420   18.20248
  18.58662   23.69892   25.37721   27.33450   29.09744   35.11109   37.37790   40.68727
  41.53980   44.95775   45.59318   49.06828   50.50994   53.49120   56.64368   57.91897
 kpt# 744, nband= 24, wtk=  1.00000, kpt=  0.2500  0.0869  0.2500 (reduced coord)
 -39.54159  -16.18476  -15.74862  -15.35668   12.37681   13.23548   14.10950   18.17978
  18.58639   23.63423   25.42302   27.37327   29.15879   35.05533   37.35128   40.69910
  41.59733   45.02889   45.74831   48.91886   50.36998   53.50495   56.65837   57.92457
 kpt# 745, nband= 24, wtk=  1.00000, kpt=  0.2500  0.0833  0.2500 (reduced coord)
 -39.54197  -16.18916  -15.74638  -15.34985   12.35975   13.22964   14.11447   18.15649
  18.58632   23.56889   25.46958   27.41293   29.22028   35.00072   37.32648   40.71087
  41.65492   45.09784   45.90424   48.77331   50.23085   53.51618   56.67510   57.93009
 kpt# 746, nband= 24, wtk=  1.00000, kpt=  0.2500  0.0798  0.2500 (reduced coord)
 -39.54236  -16.19336  -15.74410  -15.34323   12.34313   13.22389   14.11913   18.13263
  18.58643   23.50295   25.51679   27.45346   29.28192   34.94725   37.30352   40.72256
  41.71248   45.16415   46.06090   48.63221   50.09257   53.52470   56.69372   57.93537
 kpt# 747, nband= 24, wtk=  1.00000, kpt=  0.2500  0.0762  0.2500 (reduced coord)
 -39.54276  -16.19765  -15.74184  -15.33697   12.32691   13.21821   14.12338   18.10817
  18.58666   23.43645   25.56457   27.49483   29.34357   34.89490   37.28242   40.73418
  41.76986   45.22722   46.21825   48.49623   49.95511   53.53031   56.71384   57.94062
 kpt# 748, nband= 24, wtk=  1.00000, kpt=  0.2500  0.0727  0.2500 (reduced coord)
 -39.54316  -16.20143  -15.73950  -15.33075   12.31116   13.21264   14.12746   18.08317
  18.58712   23.36945   25.61286   27.53710   29.40550   34.84368   37.26323   40.74574
  41.82700   45.28652   46.37625   48.36622   49.81866   53.53287   56.73563   57.94501
 kpt# 749, nband= 24, wtk=  1.00000, kpt=  0.2500  0.0691  0.2500 (reduced coord)
 -39.54356  -16.20500  -15.73715  -15.32474   12.29584   13.20717   14.13127   18.05761
  18.58774   23.30198   25.66159   27.58024   29.46759   34.79357   37.24595   40.75723
  41.88379   45.34115   46.53484   48.24310   49.68319   53.53223   56.75859   57.94856
 kpt# 750, nband= 24, wtk=  1.00000, kpt=  0.2500  0.0656  0.2500 (reduced coord)
 -39.54397  -16.20821  -15.73466  -15.31894   12.28097   13.20186   14.13486   18.03149
  18.58854   23.23412   25.71071   27.62425   29.52987   34.74455   37.23058   40.76864
  41.94014   45.39017   46.69407   48.12800   49.54883   53.52835   56.78235   57.94965
 kpt# 751, nband= 24, wtk=  1.00000, kpt=  0.2500  0.0621  0.2500 (reduced coord)
 -39.54438  -16.21135  -15.73226  -15.31335   12.26656   13.19662   14.13820   18.00483
  18.58950   23.16579   25.76015   27.66910   29.59230   34.69662   37.21713   40.77997
  41.99592   45.43241   46.85370   48.02219   49.41543   53.52094   56.80647   57.95014
 kpt# 752, nband= 24, wtk=  1.00000, kpt=  0.2500  0.0585  0.2500 (reduced coord)
 -39.54480  -16.21426  -15.72987  -15.30807   12.25260   13.19151   14.14133   17.97759
  18.59062   23.09707   25.80986   27.71478   29.65478   34.64976   37.20561   40.79121
  42.05101   45.46656   47.01377   47.92709   49.28312   53.51003   56.83047   57.95149
 kpt# 753, nband= 24, wtk=  1.00000, kpt=  0.2500  0.0550  0.2500 (reduced coord)
 -39.54522  -16.21697  -15.72742  -15.30292   12.23909   13.18654   14.14427   17.94986
  18.59190   23.02796   25.85978   27.76131   29.71758   34.60397   37.19597   40.80234
  42.10539   45.49131   47.17423   47.84420   49.15196   53.49550   56.85369   57.95382
 kpt# 754, nband= 24, wtk=  1.00000, kpt=  0.2500  0.0514  0.2500 (reduced coord)
 -39.54565  -16.21947  -15.72495  -15.29799   12.22603   13.18172   14.14704   17.92161
  18.59332   22.95850   25.90988   27.80868   29.78058   34.55922   37.18822   40.81334
  42.15895   45.50527   47.33500   47.77502   49.02201   53.47733   56.87551   57.95794
 kpt# 755, nband= 24, wtk=  1.00000, kpt=  0.2500  0.0479  0.2500 (reduced coord)
 -39.54607  -16.22174  -15.72245  -15.29329   12.21343   13.17704   14.14967   17.89285
  18.59489   22.88871   25.96010   27.85686   29.84380   34.51551   37.18233   40.82421
  42.21160   45.50722   47.49602   47.72090   48.89331   53.45546   56.89516   57.94429
 kpt# 756, nband= 24, wtk=  1.00000, kpt=  0.2500  0.0443  0.2500 (reduced coord)
 -39.54651  -16.22380  -15.71994  -15.28881   12.20129   13.17254   14.15217   17.86358
  18.59659   22.81861   26.01041   27.90586   29.90723   34.47282   37.17829   40.83490
  42.26325   45.49633   47.65721   47.68282   48.76594   53.42988   56.91186   57.91538
 kpt# 757, nband= 24, wtk=  1.00000, kpt=  0.2500  0.0408  0.2500 (reduced coord)
 -39.54694  -16.22546  -15.71740  -15.28450   12.18961   13.16820   14.15457   17.83383
  18.59844   22.74834   26.06077   27.95567   29.97092   34.43114   37.17606   40.84542
  42.31386   45.47225   47.66125   47.81851   48.64002   53.40060   56.92498   57.88711
 kpt# 758, nband= 24, wtk=  1.00000, kpt=  0.2500  0.0372  0.2500 (reduced coord)
 -39.54738  -16.22729  -15.71488  -15.28050   12.17836   13.16404   14.15683   17.80360
  18.60037   22.67766   26.11109   28.00620   30.03482   34.39044   37.17559   40.85571
  42.36328   45.43522   47.65607   47.97954   48.51566   53.36755   56.93315   57.86089
 kpt# 759, nband= 24, wtk=  1.00000, kpt=  0.2500  0.0337  0.2500 (reduced coord)
 -39.54782  -16.22869  -15.71232  -15.27671   12.16759   13.16005   14.15909   17.77290
  18.60243   22.60671   26.16142   28.05758   30.09898   34.35073   37.17683   40.86576
  42.41148   45.38610   47.66658   48.13939   48.39402   53.33078   56.93591   57.82541
 kpt# 760, nband= 24, wtk=  1.00000, kpt=  0.2500  0.0301  0.2500 (reduced coord)
 -39.54826  -16.22983  -15.70952  -15.27291   12.15726   13.15629   14.16135   17.74177
  18.60461   22.53555   26.21172   28.10975   30.16344   34.31207   37.17978   40.87567
  42.45846   45.32629   47.69167   48.25289   48.32032   53.29057   56.93260   57.78175
 kpt# 761, nband= 24, wtk=  1.00000, kpt=  0.2500  0.0266  0.2500 (reduced coord)
 -39.54870  -16.23079  -15.70694  -15.26961   12.14739   13.15270   14.16357   17.71019
  18.60685   22.46414   26.26191   28.16266   30.22813   34.27428   37.18430   40.88511
  42.50399   45.25704   47.72989   48.14608   48.46813   53.24640   56.92238   57.73255
 kpt# 762, nband= 24, wtk=  1.00000, kpt=  0.2500  0.0230  0.2500 (reduced coord)
 -39.54915  -16.23153  -15.70435  -15.26654   12.13796   13.14930   14.16580   17.67817
  18.60917   22.39252   26.31197   28.21632   30.29310   34.23741   37.19037   40.89420
  42.54808   45.18012   47.77977   48.02857   48.62803   53.19859   56.90498   57.67646
 kpt# 763, nband= 24, wtk=  1.00000, kpt=  0.2500  0.0195  0.2500 (reduced coord)
 -39.54960  -16.23204  -15.70174  -15.26372   12.12897   13.14612   14.16807   17.64575
  18.61155   22.32071   26.36189   28.27073   30.35835   34.20147   37.19791   40.90289
  42.59067   45.09713   47.83985   47.91197   48.78832   53.14718   56.88020   57.61405
 kpt# 764, nband= 24, wtk=  1.00000, kpt=  0.2500  0.0160  0.2500 (reduced coord)
 -39.55004  -16.23204  -15.69903  -15.26091   12.12043   13.14318   14.17044   17.61294
  18.61400   22.24890   26.41167   28.32587   30.42397   34.16644   37.20687   40.91121
  42.63175   45.00961   47.79695   47.90881   48.94863   53.09242   56.84861   57.54645
 kpt# 765, nband= 24, wtk=  1.00000, kpt=  0.2500  0.0124  0.2500 (reduced coord)
 -39.55049  -16.23211  -15.69641  -15.25858   12.11231   13.14043   14.17287   17.57974
  18.61647   22.17676   26.46123   28.38171   30.48982   34.13228   37.21712   40.91894
  42.67114   44.91873   47.68363   47.98546   49.10816   53.03396   56.80927   57.47319
 kpt# 766, nband= 24, wtk=  1.00000, kpt=  0.2500  0.0089  0.2500 (reduced coord)
 -39.55095  -16.23211  -15.69389  -15.25650   12.10459   13.13791   14.17538   17.54616
  18.61893   22.10448   26.51052   28.43807   30.55595   34.09899   37.22859   40.92612
  42.70882   44.82569   47.57208   48.06881   49.26700   52.97204   56.76302   57.39552
 kpt# 767, nband= 24, wtk=  1.00000, kpt=  0.2500  0.0053  0.2500 (reduced coord)
 -39.55140  -16.23174  -15.69126  -15.25465   12.09731   13.13561   14.17807   17.51224
  18.62141   22.03210   26.55963   28.49530   30.62239   34.06656   37.24118   40.93269
  42.74472   44.73151   47.46257   48.15800   49.42497   52.90685   56.71048   57.31480
 kpt# 768, nband= 24, wtk=  1.00000, kpt=  0.2500  0.0018  0.2500 (reduced coord)
 -39.55185  -16.23116  -15.68863  -15.25305   12.09044   13.13355   14.18091   17.47799
  18.62388   21.95964   26.60849   28.55319   30.68912   34.03497   37.25480   40.93858
  42.77876   44.63706   47.35511   48.25233   49.58191   52.83841   56.65207   57.23138
 kpt# 769, nband= 24, wtk=  1.00000, kpt=  0.2500 -0.0018  0.2500 (reduced coord)
 -39.55230  -16.23035  -15.68600  -15.25170   12.08397   13.13174   14.18395   17.44342
  18.62631   21.88710   26.65709   28.61174   30.75615   34.00420   37.26933   40.94373
  42.81085   44.54310   47.24979   48.35117   49.73760   52.76686   56.58834   57.14594
 kpt# 770, nband= 24, wtk=  1.00000, kpt=  0.2500 -0.0053  0.2500 (reduced coord)
 -39.55276  -16.22932  -15.68337  -15.25059   12.07789   13.13016   14.18721   17.40855
  18.62869   21.81452   26.70542   28.67093   30.82346   33.97424   37.28466   40.94807
  42.84091   44.45032   47.14671   48.45403   49.89183   52.69231   56.51979   57.05913
 kpt# 771, nband= 24, wtk=  1.00000, kpt=  0.2500 -0.0089  0.2500 (reduced coord)
 -39.55321  -16.22808  -15.68073  -15.24973   12.07220   13.12884   14.19071   17.37340
  18.63100   21.74192   26.75348   28.73075   30.89103   33.94508   37.30066   40.95153
  42.86880   44.35933   47.04596   48.56044   50.04436   52.61491   56.44692   56.97157
 kpt# 772, nband= 24, wtk=  1.00000, kpt=  0.2500 -0.0124  0.2500 (reduced coord)
 -39.55366  -16.22662  -15.67810  -15.24912   12.06689   13.12777   14.19449   17.33798
  18.63321   21.66933   26.80125   28.79117   30.95886   33.91668   37.31722   40.95402
  42.89441   44.27071   46.94765   48.67001   50.19491   52.53482   56.37018   56.88405
 kpt# 773, nband= 24, wtk=  1.00000, kpt=  0.2500 -0.0160  0.2500 (reduced coord)
 -39.55412  -16.22473  -15.67533  -15.24860   12.06194   13.12698   14.19861   17.30234
  18.63531   21.59689   26.84873   28.85223   31.02695   33.88919   37.33424   40.95552
  42.91760   44.18511   46.85196   48.78247   50.34329   52.45235   56.29002   56.79669
 kpt# 774, nband= 24, wtk=  1.00000, kpt=  0.2500 -0.0195  0.2500 (reduced coord)
 -39.55457  -16.22289  -15.67274  -15.24866   12.05734   13.12643   14.20300   17.26642
  18.63724   21.52440   26.89592   28.91379   31.09508   33.86230   37.35147   40.95584
  42.93810   44.10287   46.75881   48.89731   50.48893   52.36746   56.20667   56.71029
 kpt# 775, nband= 24, wtk=  1.00000, kpt=  0.2500 -0.0230  0.2500 (reduced coord)
 -39.55502  -16.22078  -15.67013  -15.24880   12.05309   13.12614   14.20774   17.23032
  18.63902   21.45200   26.94282   28.97594   31.16353   33.83613   37.36891   40.95495
  42.95588   44.02461   46.66842   49.01427   50.63157   52.28053   56.12052   56.62565
 kpt# 776, nband= 24, wtk=  1.00000, kpt=  0.2500 -0.0266  0.2500 (reduced coord)
 -39.55547  -16.21846  -15.66752  -15.24918   12.04917   13.12612   14.21287   17.19402
  18.64059   21.37974   26.98943   29.03863   31.23214   33.81067   37.38639   40.95277
  42.97065   43.95087   46.58088   49.13300   50.77075   52.19184   56.03184   56.54324
 kpt# 777, nband= 24, wtk=  1.00000, kpt=  0.2500 -0.0301  0.2500 (reduced coord)
 -39.55592  -16.21617  -15.66506  -15.24995   12.04552   13.12636   14.21834   17.15749
  18.64194   21.30762   27.03567   29.10179   31.30080   33.78589   37.40372   40.94919
  42.98212   43.88212   46.49628   49.25308   50.90593   52.10173   55.94064   56.46368
 kpt# 778, nband= 24, wtk=  1.00000, kpt=  0.2500 -0.0337  0.2500 (reduced coord)
 -39.55636  -16.21343  -15.66247  -15.25082   12.04222   13.12687   14.22430   17.12086
  18.64303   21.23573   27.08171   29.16550   31.36958   33.76180   37.42085   40.94414
  42.99016   43.81893   46.41479   49.37413   51.03665   52.01068   55.84755   56.38778
 kpt# 779, nband= 24, wtk=  1.00000, kpt=  0.2500 -0.0372  0.2500 (reduced coord)
 -39.55681  -16.21048  -15.65990  -15.25194   12.03922   13.12766   14.23070   17.08409
  18.64382   21.16408   27.12749   29.22970   31.43837   33.73836   37.43762   40.93752
  42.99451   43.76172   46.33650   49.49555   51.16226   51.91920   55.75254   56.31621
 kpt# 780, nband= 24, wtk=  1.00000, kpt=  0.2500 -0.0408  0.2500 (reduced coord)
 -39.55725  -16.20732  -15.65733  -15.25330   12.03650   13.12872   14.23759   17.04721
  18.64427   21.09272   27.17300   29.29436   31.50712   33.71557   37.45389   40.92924
  42.99507   43.71083   46.26150   49.61666   51.28206   51.82802   55.65578   56.24977
 kpt# 781, nband= 24, wtk=  1.00000, kpt=  0.2500 -0.0443  0.2500 (reduced coord)
 -39.55769  -16.20396  -15.65478  -15.25491   12.03405   13.13006   14.24498   17.01023
  18.64436   21.02169   27.21826   29.35946   31.57576   33.69340   37.46955   40.91922
  42.99186   43.66645   46.18991   49.73651   51.39531   51.73808   55.55743   56.18929
 kpt# 782, nband= 24, wtk=  1.00000, kpt=  0.2500 -0.0479  0.2500 (reduced coord)
 -39.55813  -16.20040  -15.65225  -15.25700   12.03185   13.13167   14.25288   16.97317
  18.64402   20.95106   27.26323   29.42498   31.64414   33.67184   37.48438   40.90738
  42.98506   43.62843   46.12184   49.85378   51.50122   51.65066   55.45760   56.13564
 kpt# 783, nband= 24, wtk=  1.00000, kpt=  0.2500 -0.0514  0.2500 (reduced coord)
 -39.55856  -16.19663  -15.64973  -15.25908   12.02989   13.13356   14.26135   16.93605
  18.64322   20.88086   27.30801   29.49091   31.71238   33.65087   37.49849   40.89364
  42.97527   43.59672   46.05739   49.96656   51.56782   51.59895   55.35650   56.08975
 kpt# 784, nband= 24, wtk=  1.00000, kpt=  0.2500 -0.0550  0.2500 (reduced coord)
 -39.55900  -16.19267  -15.64723  -15.26140   12.02816   13.13572   14.27038   16.89890
  18.64190   20.81117   27.35258   29.55721   31.78029   33.63048   37.51170   40.87792
  42.96311   43.57070   45.99665   50.07204   51.49231   51.68764   55.25427   56.05252
 kpt# 785, nband= 24, wtk=  1.00000, kpt=  0.2500 -0.0585  0.2500 (reduced coord)
 -39.55942  -16.18851  -15.64475  -15.26396   12.02665   13.13816   14.28001   16.86172
  18.64001   20.74205   27.39694   29.62386   31.84778   33.61065   37.52394   40.86015
  42.94944   43.54965   45.93972   50.16611   51.42824   51.76645   55.15106   56.02487
 kpt# 786, nband= 24, wtk=  1.00000, kpt=  0.2500 -0.0621  0.2500 (reduced coord)
 -39.55985  -16.18415  -15.64228  -15.26674   12.02534   13.14087   14.29025   16.82456
  18.63748   20.67357   27.44110   29.69085   31.91477   33.59136   37.53515   40.84030
  42.93519   43.53277   45.88666   50.24303   51.38131   51.83459   55.04707   56.00761
 kpt# 787, nband= 24, wtk=  1.00000, kpt=  0.2500 -0.0656  0.2500 (reduced coord)
 -39.56027  -16.17961  -15.63984  -15.26976   12.02421   13.14386   14.30113   16.78741
  18.63425   20.60580   27.48509   29.75814   31.98115   33.57259   37.54531   40.81829
  42.92131   43.51922   45.83756   50.29591   51.35837   51.89138   54.94251   56.00148
 kpt# 788, nband= 24, wtk=  1.00000, kpt=  0.2500 -0.0691  0.2500 (reduced coord)
 -39.56069  -16.17487  -15.63742  -15.27300   12.02326   13.14712   14.31267   16.75031
  18.63025   20.53883   27.52892   29.82571   32.04680   33.55433   37.55440   40.79411
  42.90867   43.50823   45.79248   50.31880   51.36529   51.93628   54.83765   56.00705
 kpt# 789, nband= 24, wtk=  1.00000, kpt=  0.2500 -0.0727  0.2500 (reduced coord)
 -39.56110  -16.16995  -15.63503  -15.27646   12.02247   13.15064   14.32487   16.71328
  18.62540   20.47275   27.57259   29.89353   32.11162   33.53657   37.56245   40.76772
  42.89803   43.49910   45.75147   50.30988   51.40372   51.96894   54.73279   56.02469
 kpt# 790, nband= 24, wtk=  1.00000, kpt=  0.2500 -0.0762  0.2500 (reduced coord)
 -39.56151  -16.16490  -15.63299  -15.28029   12.02182   13.15440   14.33775   16.67625
  18.61960   20.40764   27.61608   29.96156   32.17548   33.51926   37.56949   40.73911
  42.88991   43.49122   45.71432   50.27260   51.46986   51.98924   54.62829   56.05450
 kpt# 791, nband= 24, wtk=  1.00000, kpt=  0.2500 -0.0798  0.2500 (reduced coord)
 -39.56192  -16.15961  -15.63065  -15.28419   12.02131   13.15846   14.35136   16.63941
  18.61278   20.34363   27.65948   30.02982   32.23825   33.50243   37.57559   40.70829
  42.88501   43.48414   45.68154   50.21342   51.55717   51.99729   54.52478   56.09648
 kpt# 792, nband= 24, wtk=  1.00000, kpt=  0.2500 -0.0833  0.2500 (reduced coord)
 -39.56232  -16.15424  -15.62841  -15.28882   12.02091   13.16278   14.36565   16.60266
  18.60479   20.28081   27.70271   30.09821   32.29961   33.48605   37.58059   40.67528
  42.88361   43.47723   45.65289   50.13864   51.65868   51.99333   54.42277   56.15027
 kpt# 793, nband= 24, wtk=  1.00000, kpt=  0.2500 -0.0869  0.2500 (reduced coord)
 -39.56271  -16.14829  -15.62584  -15.29273   12.02064   13.16739   14.38077   16.56612
  18.59564   20.21948   27.74591   30.16679   32.36004   33.47037   37.58521   40.64046
  42.88616   43.47069   45.62842   50.05354   51.76892   51.97822   54.32359   56.21540
 kpt# 794, nband= 24, wtk=  1.00000, kpt=  0.2500 -0.0904  0.2500 (reduced coord)
 -39.56310  -16.14228  -15.62358  -15.29725   12.02047   13.17221   14.39660   16.52973
  18.58512   20.15957   27.78899   30.23548   32.41871   33.45482   37.58920   40.60315
  42.89256   43.46386   45.60806   49.96116   51.88329   51.95229   54.22789   56.29109
 kpt# 795, nband= 24, wtk=  1.00000, kpt=  0.2500 -0.0940  0.2500 (reduced coord)
 -39.56349  -16.13631  -15.62136  -15.30200   12.02037   13.17728   14.41317   16.49354
  18.57313   20.10111   27.83197   30.30424   32.47572   33.43966   37.59275   40.56378
  42.90308   43.45658   45.59180   49.86373   51.91642   51.99778   54.13757   56.37658
 kpt# 796, nband= 24, wtk=  1.00000, kpt=  0.2500 -0.0975  0.2500 (reduced coord)
 -39.56387  -16.13019  -15.61917  -15.30695   12.02036   13.18258   14.43050   16.45757
  18.55955   20.04438   27.87487   30.37305   32.53090   33.42488   37.59608   40.52241
  42.91778   43.44869   45.57961   49.76312   51.87150   52.10873   54.05499   56.47103
 kpt# 797, nband= 24, wtk=  1.00000, kpt=  0.2500 -0.1011  0.2500 (reduced coord)
 -39.56424  -16.12391  -15.61701  -15.31209   12.02041   13.18812   14.44860   16.42184
  18.54426   19.98950   27.91769   30.44188   32.58411   33.41045   37.59939   40.47913
  42.93667   43.44005   45.57143   49.66050   51.81839   52.21194   53.98337   56.57354
 kpt# 798, nband= 24, wtk=  1.00000, kpt=  0.2500 -0.1046  0.2500 (reduced coord)
 -39.56461  -16.11747  -15.61489  -15.31742   12.02051   13.19388   14.46749   16.38638
  18.52714   19.93662   27.96043   30.51070   32.63518   33.39637   37.60291   40.43403
  42.95971   43.43053   45.56720   49.55672   51.75796   52.30249   53.92699   56.68326
 kpt# 799, nband= 24, wtk=  1.00000, kpt=  0.2500 -0.1082  0.2500 (reduced coord)
 -39.56497  -16.11089  -15.61280  -15.32294   12.02066   13.19986   14.48717   16.35120
  18.50808   19.88588   28.00310   30.57945   32.68397   33.38260   37.60688   40.38722
  42.98684   43.42003   45.56687   49.45245   51.69102   52.37471   53.89105   56.79934
 kpt# 800, nband= 24, wtk=  1.00000, kpt=  0.2500 -0.1117  0.2500 (reduced coord)
 -39.56533  -16.10416  -15.61075  -15.32863   12.02086   13.20605   14.50762   16.31634
  18.48698   19.83739   28.04568   30.64812   32.73032   33.36914   37.61153   40.33882
  43.01793   43.40846   45.57035   49.34821   51.61834   52.42293   53.88093   56.92099
 kpt# 801, nband= 24, wtk=  1.00000, kpt=  0.2500 -0.1152  0.2500 (reduced coord)
 -39.56567  -16.09729  -15.60874  -15.33463   12.02107   13.21244   14.52886   16.28181
  18.46373   19.79128   28.08815   30.71666   32.77405   33.35596   37.61701   40.28893
  43.05284   43.39565   45.57756   49.24443   51.54062   52.44300   53.90050   57.04750
 kpt# 802, nband= 24, wtk=  1.00000, kpt=  0.2500 -0.1188  0.2500 (reduced coord)
 -39.56602  -16.09029  -15.60676  -15.34068   12.02132   13.21902   14.55089   16.24764
  18.43826   19.74763   28.13056   30.78503   32.81509   33.34304   37.62375   40.23771
  43.09142   43.38174   45.58841   49.14151   51.45849   52.43400   53.95060   57.17819
 kpt# 803, nband= 24, wtk=  1.00000, kpt=  0.2500 -0.1223  0.2500 (reduced coord)
 -39.56635  -16.08316  -15.60483  -15.34688   12.02158   13.22578   14.57370   16.21386
  18.41054   19.70653   28.17285   30.85319   32.85327   33.33037   37.63190   40.18527
  43.13346   43.36661   45.60280   49.03977   51.37253   52.39839   54.02861   57.31247
 kpt# 804, nband= 24, wtk=  1.00000, kpt=  0.2500 -0.1259  0.2500 (reduced coord)
 -39.56668  -16.07588  -15.60284  -15.35310   12.02185   13.23272   14.59729   16.18049
  18.38055   19.66801   28.21504   30.92111   32.88862   33.31804   37.64166   40.13190
  43.17866   43.35031   45.62066   48.93956   51.28327   52.34081   54.12991   57.44978
 kpt# 805, nband= 24, wtk=  1.00000, kpt=  0.2500 -0.1294  0.2500 (reduced coord)
 -39.56700  -16.06851  -15.60098  -15.35962   12.02213   13.23980   14.62164   16.14756
  18.34827   19.63209   28.25708   30.98872   32.92079   33.30580   37.65326   40.07747
  43.22645   43.33314   45.64186   48.84107   51.19111   52.26613   54.24943   57.58962
 kpt# 806, nband= 24, wtk=  1.00000, kpt=  0.2500 -0.1330  0.2500 (reduced coord)
 -39.56732  -16.06103  -15.59917  -15.36627   12.02240   13.24702   14.64674   16.11509
  18.31377   19.59876   28.29898   31.05599   32.94982   33.29374   37.66687   40.02226
  43.27375   43.31796   45.66632   48.74463   51.09649   52.17868   54.38288   57.73159
 kpt# 807, nband= 24, wtk=  1.00000, kpt=  0.2500 -0.1365  0.2500 (reduced coord)
 -39.56762  -16.05344  -15.59741  -15.37306   12.02268   13.25437   14.67258   16.08311
  18.27712   19.56798   28.34069   31.12288   32.97566   33.28185   37.68265   39.96642
  43.28494   43.34011   45.69394   48.65048   50.99974   52.08178   54.52692   57.87523
 kpt# 808, nband= 24, wtk=  1.00000, kpt=  0.2500 -0.1401  0.2500 (reduced coord)
 -39.56792  -16.04576  -15.59568  -15.37998   12.02294   13.26184   14.69914   16.05164
  18.23842   19.53966   28.38221   31.18933   32.99828   33.27009   37.70075   39.91012
  43.26546   43.39391   45.72462   48.55888   50.90121   51.97788   54.67910   58.02020
 kpt# 809, nband= 24, wtk=  1.00000, kpt=  0.2500 -0.1436  0.2500 (reduced coord)
 -39.56821  -16.03799  -15.59400  -15.38702   12.02319   13.26940   14.72641   16.02072
  18.19781   19.51372   28.42349   31.25529   33.01766   33.25844   37.72126   39.85349
  43.24215   43.45225   45.75825   48.47007   50.80115   51.86877   54.83764   58.16617
 kpt# 810, nband= 24, wtk=  1.00000, kpt=  0.2500 -0.1472  0.2500 (reduced coord)
 -39.56849  -16.02996  -15.59230  -15.39417   12.02344   13.27706   14.75438   15.99039
  18.15545   19.49007   28.46452   31.32074   33.03384   33.24689   37.74428   39.79671
  43.21685   43.51303   45.79477   48.38439   50.70002   51.75576   55.00126   58.31343
 kpt# 811, nband= 24, wtk=  1.00000, kpt=  0.2500 -0.1507  0.2500 (reduced coord)
 -39.56877  -16.02185  -15.59070  -15.40111   12.02367   13.28477   14.78298   15.96064
  18.11161   19.46853   28.50522   31.38559   33.04701   33.23543   37.76982   39.73992
  43.19025   43.57572   45.83405   48.30195   50.59765   51.64010   55.16902   58.46080
 kpt# 812, nband= 24, wtk=  1.00000, kpt=  0.2500 -0.1543  0.2500 (reduced coord)
 -39.56904  -16.01387  -15.58916  -15.40846   12.02388   13.29252   14.81219   15.93153
  18.06624   19.44897   28.54558   31.44979   33.05692   33.22397   37.79784   39.68324
  43.16163   43.63998   45.87601   48.22297   50.49442   51.52194   55.34013   58.60861
 kpt# 813, nband= 24, wtk=  1.00000, kpt=  0.2500 -0.1578  0.2500 (reduced coord)
 -39.56929  -16.00593  -15.58787  -15.41598   12.02405   13.30030   14.84198   15.90307
  18.01963   19.43120   28.58549   31.51306   33.06381   33.21250   37.82836   39.62682
  43.13139   43.70546   45.92056   48.14772   50.39050   51.40193   55.51410   58.99042
 kpt# 814, nband= 24, wtk=  1.00000, kpt=  0.2500 -0.1613  0.2500 (reduced coord)
 -39.56954  -15.99785  -15.58643  -15.42348   12.02421   13.30808   14.87231   15.87531
  17.97203   19.41518   28.62500   31.57582   33.06785   33.20102   37.86128   39.57088
  43.09970   43.77194   45.96761   48.07650   50.28607   51.28096   55.69051   59.22723
 kpt# 815, nband= 24, wtk=  1.00000, kpt=  0.2500 -0.1649  0.2500 (reduced coord)
 -39.56978  -15.98974  -15.58504  -15.43103   12.02436   13.31584   14.90314   15.84827
  17.92360   19.40074   28.66400   31.63776   33.06916   33.18950   37.89651   39.51554
  43.06656   43.83910   46.01710   48.00951   50.18126   51.15919   55.86901   59.42114
 kpt# 816, nband= 24, wtk=  1.00000, kpt=  0.2500 -0.1684  0.2500 (reduced coord)
 -39.57002  -15.98161  -15.58371  -15.43864   12.02449   13.32357   14.93440   15.82198
  17.87455   19.38771   28.70243   31.69883   33.06791   33.17788   37.93392   39.46095
  43.03204   43.90663   46.06893   47.94698   50.07621   51.03694   56.04933   59.48892
 kpt# 817, nband= 24, wtk=  1.00000, kpt=  0.2500 -0.1720  0.2500 (reduced coord)
 -39.57024  -15.97352  -15.58229  -15.44636   12.02460   13.33126   14.96606   15.79649
  17.82505   19.37598   28.74021   31.75900   33.06423   33.16619   37.97313   39.40737
  42.99622   43.97423   46.12304   47.88914   49.97110   50.91452   56.23119   59.34544
 kpt# 818, nband= 24, wtk=  1.00000, kpt=  0.2500 -0.1755  0.2500 (reduced coord)
 -39.57045  -15.96540  -15.58106  -15.45401   12.02469   13.33884   14.99803   15.77180
  17.77533   19.36543   28.77730   31.81816   33.05844   33.15430   38.01433   39.35472
  42.95922   44.04158   46.17934   47.83622   49.86588   50.79211   56.41447   59.49283
 kpt# 819, nband= 24, wtk=  1.00000, kpt=  0.2500 -0.1791  0.2500 (reduced coord)
 -39.57066  -15.95730  -15.57988  -15.46167   12.02476   13.34631   15.03025   15.74797
  17.72557   19.35596   28.81361   31.87627   33.05069   33.14220   38.05710   39.30327
  42.92117   44.10836   46.23777   47.78842   49.76073   50.66998   56.59894   59.63702
 kpt# 820, nband= 24, wtk=  1.00000, kpt=  0.2500 -0.1826  0.2500 (reduced coord)
 -39.57085  -15.94925  -15.57875  -15.46931   12.02481   13.35364   15.06263   15.72502
  17.67596   19.34745   28.84905   31.93327   33.04123   33.12987   38.10120   39.25317
  42.88222   44.17423   46.29826   47.74597   49.65573   50.54836   56.78444   59.77022
 kpt# 821, nband= 24, wtk=  1.00000, kpt=  0.2500 -0.1862  0.2500 (reduced coord)
 -39.57104  -15.94126  -15.57768  -15.47690   12.02485   13.36082   15.09508   15.70299
  17.62669   19.33981   28.88354   31.98911   33.03027   33.11727   38.14633   39.20455
  42.84254   44.23887   46.36075   47.70904   49.55097   50.42746   56.97079   59.88088
 kpt# 822, nband= 24, wtk=  1.00000, kpt=  0.2500 -0.1897  0.2500 (reduced coord)
 -39.57122  -15.93335  -15.57666  -15.48444   12.02487   13.36781   15.12749   15.68191
  17.57795   19.33297   28.91700   32.04371   33.01807   33.10434   38.19221   39.15757
  42.80233   44.30193   46.42517   47.67781   49.44653   50.30752   57.15784   59.96513
 kpt# 823, nband= 24, wtk=  1.00000, kpt=  0.2500 -0.1933  0.2500 (reduced coord)
 -39.57138  -15.92555  -15.57570  -15.49189   12.02488   13.37459   15.15975   15.66180
  17.52995   19.32684   28.94931   32.09703   33.00488   33.09105   38.23851   39.11236
  42.76182   44.36307   46.49147   47.65242   49.34247   50.18877   57.34539   60.01487
 kpt# 824, nband= 24, wtk=  1.00000, kpt=  0.2500 -0.1968  0.2500 (reduced coord)
 -39.57154  -15.91789  -15.57479  -15.49922   12.02488   13.38112   15.19172   15.64272
  17.48288   19.32136   28.98039   32.14900   32.99093   33.07735   38.28488   39.06906
  42.72126   44.42196   46.55959   47.63297   49.23886   50.07145   57.53328   60.03465
 kpt# 825, nband= 24, wtk=  1.00000, kpt=  0.2500 -0.2004  0.2500 (reduced coord)
 -39.57169  -15.91039  -15.57393  -15.50642   12.02487   13.38740   15.22327   15.62468
  17.43697   19.31647   29.01014   32.19957   32.97649   33.06319   38.33097   39.02781
  42.68092   44.47828   46.62947   47.61953   49.13576   49.95586   57.72127   60.03571
 kpt# 826, nband= 24, wtk=  1.00000, kpt=  0.2500 -0.2039  0.2500 (reduced coord)
 -39.57182  -15.90314  -15.57327  -15.51375   12.02484   13.39337   15.25417   15.60770
  17.39243   19.31209   29.03840   32.24847   32.96173   33.04853   38.37633   38.98873
  42.64099   44.53164   46.70106   47.61203   49.03316   49.84210   57.90906   59.98094
 kpt# 827, nband= 24, wtk=  1.00000, kpt=  0.2500 -0.2074  0.2500 (reduced coord)
 -39.57195  -15.89608  -15.57253  -15.52056   12.02481   13.39904   15.28434   15.59185
  17.34949   19.30822   29.06517   32.29604   32.94700   33.03333   38.42071   38.95197
  42.60203   44.58192   46.77431   47.61054   48.93126   49.73090   58.09643   59.98403
 kpt# 828, nband= 24, wtk=  1.00000, kpt=  0.2500 -0.2110  0.2500 (reduced coord)
 -39.57207  -15.88903  -15.57142  -15.52702   12.02485   13.40437   15.31356   15.57720
  17.30844   19.30481   29.09031   32.34205   32.93252   33.01765   38.46367   38.91788
  42.56448   44.62918   46.84921   47.61483   48.83025   49.62252   58.28308   59.98062
 kpt# 829, nband= 24, wtk=  1.00000, kpt=  0.2500 -0.2145  0.2500 (reduced coord)
 -39.57218  -15.88265  -15.57084  -15.53367   12.02480   13.40932   15.34148   15.56366
  17.26946   19.30178   29.11364   32.38629   32.91832   33.00125   38.50448   38.88610
  42.52810   44.67235   46.92562   47.62453   48.72973   49.51732   58.46805   59.99416
 kpt# 830, nband= 24, wtk=  1.00000, kpt=  0.2500 -0.2181  0.2500 (reduced coord)
 -39.57228  -15.87654  -15.57027  -15.53959   12.02477   13.41388   15.36801   15.55132
  17.23290   19.29913   29.13515   32.42892   32.90486   32.98422   38.54328   38.85698
  42.49378   44.71176   47.00354   47.63937   48.63003   49.41597   58.65104   60.00782
 kpt# 831, nband= 24, wtk=  1.00000, kpt=  0.2500 -0.2216  0.2500 (reduced coord)
 -39.57236  -15.87085  -15.56977  -15.54510   12.02473   13.41803   15.39284   15.54020
  17.19902   19.29684   29.15472   32.46975   32.89225   32.96656   38.57940   38.83062
  42.46176   44.74720   47.08291   47.65870   48.53116   49.31916   58.83086   60.02152
 kpt# 832, nband= 24, wtk=  1.00000, kpt=  0.2500 -0.2252  0.2500 (reduced coord)
 -39.57244  -15.86564  -15.56932  -15.55016   12.02470   13.42174   15.41568   15.53034
  17.16813   19.29487   29.17223   32.50867   32.88066   32.94828   38.61242   38.80712
  42.43240   44.77857   47.16367   47.68173   48.43320   49.22776   59.00592   60.03575
 kpt# 833, nband= 24, wtk=  1.00000, kpt=  0.2500 -0.2287  0.2500 (reduced coord)
 -39.57251  -15.86093  -15.56877  -15.55464   12.02467   13.42500   15.43626   15.52174
  17.14054   19.29321   29.18761   32.54552   32.87033   32.92973   38.64197   38.78666
  42.40607   44.80580   47.24575   47.70741   48.33622   49.14285   59.17380   60.05125
 kpt# 834, nband= 24, wtk=  1.00000, kpt=  0.2500 -0.2323  0.2500 (reduced coord)
 -39.57256  -15.85684  -15.56844  -15.55862   12.02464   13.42779   15.45429   15.51442
  17.11655   19.29182   29.20077   32.58006   32.86127   32.91058   38.66767   38.76914
  42.38312   44.82883   47.32907   47.73439   48.24029   49.06580   59.33060   60.07427
 kpt# 835, nband= 24, wtk=  1.00000, kpt=  0.2500 -0.2358  0.2500 (reduced coord)
 -39.57261  -15.85339  -15.56801  -15.56188   12.02462   13.43010   15.46951   15.50843
  17.09644   19.29072   29.21164   32.61192   32.85371   32.89153   38.68922   38.75478
  42.36387   44.84770   47.41351   47.76101   48.14559   48.99831   59.47135   60.09843
 kpt# 836, nband= 24, wtk=  1.00000, kpt=  0.2500 -0.2394  0.2500 (reduced coord)
 -39.57265  -15.85050  -15.56762  -15.56384   12.02462   13.43193   15.48171   15.50376
  17.08054   19.28991   29.22018   32.64040   32.84794   32.87329   38.70657   38.74354
  42.34887   44.86239   47.49884   47.78539   48.05238   48.94239   59.58725   60.15823
 kpt# 837, nband= 24, wtk=  1.00000, kpt=  0.2500 -0.2429  0.2500 (reduced coord)
 -39.57267  -15.84852  -15.56748  -15.56578   12.02460   13.43322   15.49054   15.50040
  17.06897   19.28930   29.22630   32.66400   32.84357   32.85681   38.71894   38.73544
  42.33777   44.87283   47.58416   47.80500   47.96132   48.90011   59.67174   60.20860
 kpt# 838, nband= 24, wtk=  1.00000, kpt=  0.2500 -0.2465  0.2500 (reduced coord)
 -39.57269  -15.84731  -15.56739  -15.56696   12.02459   13.43400   15.49591   15.49839
  17.06195   19.28894   29.22999   32.68041   32.84093   32.84466   38.72644   38.73057
  42.33104   44.87909   47.66655   47.81785   47.87549   48.87366   59.72200   60.25531
 kpt# 839, nband= 24, wtk=  1.00000, kpt=  0.2500 -0.2500  0.2500 (reduced coord)
 -39.57269  -15.84691  -15.56736  -15.56736   12.02459   13.43426   15.49771   15.49771
  17.05959   19.28882   29.23122   32.68647   32.84004   32.84004   38.72895   38.72895
  42.32879   44.88117   47.71855   47.82234   47.82234   48.86464   59.73949   60.27903
 kpt# 840, nband= 24, wtk=  1.00000, kpt=  0.2500 -0.2465  0.2500 (reduced coord)
 -39.57269  -15.84731  -15.56739  -15.56696   12.02459   13.43400   15.49591   15.49839
  17.06195   19.28894   29.22999   32.68041   32.84093   32.84466   38.72644   38.73057
  42.33104   44.87909   47.66655   47.81785   47.87549   48.87366   59.72200   60.25531
 kpt# 841, nband= 24, wtk=  1.00000, kpt=  0.2500 -0.2429  0.2500 (reduced coord)
 -39.57267  -15.84852  -15.56748  -15.56578   12.02460   13.43322   15.49054   15.50040
  17.06897   19.28930   29.22630   32.66400   32.84357   32.85681   38.71894   38.73544
  42.33777   44.87283   47.58416   47.80500   47.96132   48.90011   59.67174   60.20860
 kpt# 842, nband= 24, wtk=  1.00000, kpt=  0.2500 -0.2394  0.2500 (reduced coord)
 -39.57265  -15.85050  -15.56762  -15.56384   12.02462   13.43193   15.48171   15.50376
  17.08054   19.28991   29.22018   32.64040   32.84794   32.87329   38.70657   38.74354
  42.34887   44.86239   47.49884   47.78539   48.05238   48.94239   59.58725   60.15823
 kpt# 843, nband= 24, wtk=  1.00000, kpt=  0.2500 -0.2358  0.2500 (reduced coord)
 -39.57261  -15.85339  -15.56801  -15.56188   12.02462   13.43010   15.46951   15.50843
  17.09644   19.29072   29.21164   32.61192   32.85371   32.89153   38.68922   38.75478
  42.36387   44.84770   47.41351   47.76101   48.14559   48.99831   59.47135   60.09843
 kpt# 844, nband= 24, wtk=  1.00000, kpt=  0.2500 -0.2323  0.2500 (reduced coord)
 -39.57256  -15.85684  -15.56844  -15.55862   12.02464   13.42779   15.45429   15.51442
  17.11655   19.29182   29.20077   32.58006   32.86127   32.91058   38.66767   38.76914
  42.38312   44.82883   47.32907   47.73439   48.24029   49.06580   59.33060   60.07427
 kpt# 845, nband= 24, wtk=  1.00000, kpt=  0.2500 -0.2287  0.2500 (reduced coord)
 -39.57251  -15.86093  -15.56877  -15.55464   12.02467   13.42500   15.43626   15.52174
  17.14054   19.29321   29.18761   32.54552   32.87033   32.92973   38.64197   38.78666
  42.40607   44.80580   47.24575   47.70741   48.33622   49.14285   59.17380   60.05125
 kpt# 846, nband= 24, wtk=  1.00000, kpt=  0.2500 -0.2252  0.2500 (reduced coord)
 -39.57244  -15.86564  -15.56932  -15.55016   12.02470   13.42174   15.41568   15.53034
  17.16813   19.29487   29.17223   32.50867   32.88066   32.94828   38.61242   38.80712
  42.43240   44.77857   47.16367   47.68173   48.43320   49.22776   59.00592   60.03575
 kpt# 847, nband= 24, wtk=  1.00000, kpt=  0.2500 -0.2216  0.2500 (reduced coord)
 -39.57236  -15.87085  -15.56977  -15.54510   12.02473   13.41803   15.39284   15.54020
  17.19902   19.29684   29.15472   32.46975   32.89225   32.96656   38.57940   38.83062
  42.46176   44.74720   47.08291   47.65870   48.53116   49.31916   58.83086   60.02152
 kpt# 848, nband= 24, wtk=  1.00000, kpt=  0.2500 -0.2181  0.2500 (reduced coord)
 -39.57228  -15.87654  -15.57027  -15.53959   12.02477   13.41388   15.36801   15.55132
  17.23290   19.29913   29.13515   32.42892   32.90486   32.98422   38.54328   38.85698
  42.49378   44.71176   47.00354   47.63937   48.63003   49.41597   58.65104   60.00782
 kpt# 849, nband= 24, wtk=  1.00000, kpt=  0.2500 -0.2145  0.2500 (reduced coord)
 -39.57218  -15.88265  -15.57084  -15.53367   12.02480   13.40932   15.34148   15.56366
  17.26946   19.30178   29.11364   32.38629   32.91832   33.00125   38.50448   38.88610
  42.52810   44.67235   46.92562   47.62453   48.72973   49.51732   58.46805   59.99416
 kpt# 850, nband= 24, wtk=  1.00000, kpt=  0.2500 -0.2110  0.2500 (reduced coord)
 -39.57207  -15.88903  -15.57142  -15.52702   12.02485   13.40437   15.31356   15.57720
  17.30844   19.30481   29.09031   32.34205   32.93252   33.01765   38.46367   38.91788
  42.56448   44.62918   46.84921   47.61483   48.83025   49.62252   58.28308   59.98062
 kpt# 851, nband= 24, wtk=  1.00000, kpt=  0.2500 -0.2074  0.2500 (reduced coord)
 -39.57195  -15.89608  -15.57253  -15.52056   12.02481   13.39904   15.28434   15.59185
  17.34949   19.30822   29.06517   32.29604   32.94700   33.03333   38.42071   38.95197
  42.60203   44.58192   46.77431   47.61054   48.93126   49.73090   58.09643   59.98403
 kpt# 852, nband= 24, wtk=  1.00000, kpt=  0.2500 -0.2039  0.2500 (reduced coord)
 -39.57182  -15.90314  -15.57327  -15.51375   12.02484   13.39337   15.25417   15.60770
  17.39243   19.31209   29.03840   32.24847   32.96173   33.04853   38.37633   38.98873
  42.64099   44.53164   46.70106   47.61203   49.03316   49.84210   57.90906   59.98094
 kpt# 853, nband= 24, wtk=  1.00000, kpt=  0.2500 -0.2004  0.2500 (reduced coord)
 -39.57169  -15.91039  -15.57393  -15.50642   12.02487   13.38740   15.22327   15.62468
  17.43697   19.31647   29.01014   32.19957   32.97649   33.06319   38.33097   39.02781
  42.68092   44.47828   46.62947   47.61953   49.13576   49.95586   57.72127   60.03571
 kpt# 854, nband= 24, wtk=  1.00000, kpt=  0.2500 -0.1968  0.2500 (reduced coord)
 -39.57154  -15.91789  -15.57479  -15.49922   12.02488   13.38112   15.19172   15.64272
  17.48288   19.32136   28.98039   32.14900   32.99093   33.07735   38.28488   39.06906
  42.72126   44.42196   46.55959   47.63297   49.23886   50.07145   57.53328   60.03465
 kpt# 855, nband= 24, wtk=  1.00000, kpt=  0.2500 -0.1933  0.2500 (reduced coord)
 -39.57138  -15.92555  -15.57570  -15.49189   12.02488   13.37459   15.15975   15.66180
  17.52995   19.32684   28.94931   32.09703   33.00488   33.09105   38.23851   39.11236
  42.76182   44.36307   46.49147   47.65242   49.34247   50.18877   57.34539   60.01487
 kpt# 856, nband= 24, wtk=  1.00000, kpt=  0.2500 -0.1897  0.2500 (reduced coord)
 -39.57122  -15.93335  -15.57666  -15.48444   12.02487   13.36781   15.12749   15.68191
  17.57795   19.33297   28.91700   32.04371   33.01807   33.10434   38.19221   39.15757
  42.80233   44.30193   46.42517   47.67781   49.44653   50.30752   57.15784   59.96513
 kpt# 857, nband= 24, wtk=  1.00000, kpt=  0.2500 -0.1862  0.2500 (reduced coord)
 -39.57104  -15.94126  -15.57768  -15.47690   12.02485   13.36082   15.09508   15.70299
  17.62669   19.33981   28.88354   31.98911   33.03027   33.11727   38.14633   39.20455
  42.84254   44.23887   46.36075   47.70904   49.55097   50.42746   56.97079   59.88088
 kpt# 858, nband= 24, wtk=  1.00000, kpt=  0.2500 -0.1826  0.2500 (reduced coord)
 -39.57085  -15.94925  -15.57875  -15.46931   12.02481   13.35364   15.06263   15.72502
  17.67596   19.34745   28.84905   31.93327   33.04123   33.12987   38.10120   39.25317
  42.88222   44.17423   46.29826   47.74597   49.65573   50.54836   56.78444   59.77022
 kpt# 859, nband= 24, wtk=  1.00000, kpt=  0.2500 -0.1791  0.2500 (reduced coord)
 -39.57066  -15.95730  -15.57988  -15.46167   12.02476   13.34631   15.03025   15.74797
  17.72557   19.35596   28.81361   31.87627   33.05069   33.14220   38.05710   39.30327
  42.92117   44.10836   46.23777   47.78842   49.76073   50.66998   56.59894   59.63702
 kpt# 860, nband= 24, wtk=  1.00000, kpt=  0.2500 -0.1755  0.2500 (reduced coord)
 -39.57045  -15.96540  -15.58106  -15.45401   12.02469   13.33884   14.99803   15.77180
  17.77533   19.36543   28.77730   31.81816   33.05844   33.15430   38.01433   39.35472
  42.95922   44.04158   46.17934   47.83622   49.86588   50.79211   56.41447   59.49283
 kpt# 861, nband= 24, wtk=  1.00000, kpt=  0.2500 -0.1720  0.2500 (reduced coord)
 -39.57024  -15.97352  -15.58229  -15.44636   12.02460   13.33126   14.96606   15.79649
  17.82505   19.37598   28.74021   31.75900   33.06423   33.16619   37.97313   39.40737
  42.99622   43.97423   46.12304   47.88914   49.97110   50.91452   56.23119   59.34544
 kpt# 862, nband= 24, wtk=  1.00000, kpt=  0.2500 -0.1684  0.2500 (reduced coord)
 -39.57002  -15.98161  -15.58371  -15.43864   12.02449   13.32357   14.93440   15.82198
  17.87455   19.38771   28.70243   31.69883   33.06791   33.17788   37.93392   39.46095
  43.03204   43.90663   46.06893   47.94698   50.07621   51.03694   56.04933   59.48892
 kpt# 863, nband= 24, wtk=  1.00000, kpt=  0.2500 -0.1649  0.2500 (reduced coord)
 -39.56978  -15.98974  -15.58504  -15.43103   12.02436   13.31584   14.90314   15.84827
  17.92360   19.40074   28.66400   31.63776   33.06916   33.18950   37.89651   39.51554
  43.06656   43.83910   46.01710   48.00951   50.18126   51.15919   55.86901   59.42114
 kpt# 864, nband= 24, wtk=  1.00000, kpt=  0.2500 -0.1613  0.2500 (reduced coord)
 -39.56954  -15.99785  -15.58643  -15.42348   12.02421   13.30808   14.87231   15.87531
  17.97203   19.41518   28.62500   31.57582   33.06785   33.20102   37.86128   39.57088
  43.09970   43.77194   45.96761   48.07650   50.28607   51.28096   55.69051   59.22723
 kpt# 865, nband= 24, wtk=  1.00000, kpt=  0.2500 -0.1578  0.2500 (reduced coord)
 -39.56929  -16.00593  -15.58787  -15.41598   12.02405   13.30030   14.84198   15.90307
  18.01963   19.43120   28.58549   31.51306   33.06381   33.21250   37.82836   39.62682
  43.13139   43.70546   45.92056   48.14772   50.39050   51.40193   55.51410   58.99042
 kpt# 866, nband= 24, wtk=  1.00000, kpt=  0.2500 -0.1543  0.2500 (reduced coord)
 -39.56904  -16.01387  -15.58916  -15.40846   12.02388   13.29252   14.81219   15.93153
  18.06624   19.44897   28.54558   31.44979   33.05692   33.22397   37.79784   39.68324
  43.16163   43.63998   45.87601   48.22297   50.49442   51.52194   55.34013   58.60861
 kpt# 867, nband= 24, wtk=  1.00000, kpt=  0.2500 -0.1507  0.2500 (reduced coord)
 -39.56877  -16.02185  -15.59070  -15.40111   12.02367   13.28477   14.78298   15.96064
  18.11161   19.46853   28.50522   31.38559   33.04701   33.23543   37.76982   39.73992
  43.19025   43.57572   45.83405   48.30195   50.59765   51.64010   55.16902   58.46080
 kpt# 868, nband= 24, wtk=  1.00000, kpt=  0.2500 -0.1472  0.2500 (reduced coord)
 -39.56849  -16.02996  -15.59230  -15.39417   12.02344   13.27706   14.75438   15.99039
  18.15545   19.49007   28.46452   31.32074   33.03384   33.24689   37.74428   39.79671
  43.21685   43.51303   45.79477   48.38439   50.70002   51.75576   55.00126   58.31343
 kpt# 869, nband= 24, wtk=  1.00000, kpt=  0.2500 -0.1436  0.2500 (reduced coord)
 -39.56821  -16.03799  -15.59400  -15.38702   12.02319   13.26940   14.72641   16.02072
  18.19781   19.51372   28.42349   31.25529   33.01766   33.25844   37.72126   39.85349
  43.24215   43.45225   45.75825   48.47007   50.80115   51.86877   54.83764   58.16617
 kpt# 870, nband= 24, wtk=  1.00000, kpt=  0.2500 -0.1401  0.2500 (reduced coord)
 -39.56792  -16.04576  -15.59568  -15.37998   12.02294   13.26184   14.69914   16.05164
  18.23842   19.53966   28.38221   31.18933   32.99828   33.27009   37.70075   39.91012
  43.26546   43.39391   45.72462   48.55888   50.90121   51.97788   54.67910   58.02020
 kpt# 871, nband= 24, wtk=  1.00000, kpt=  0.2500 -0.1365  0.2500 (reduced coord)
 -39.56762  -16.05344  -15.59741  -15.37306   12.02268   13.25437   14.67258   16.08311
  18.27712   19.56798   28.34069   31.12288   32.97566   33.28185   37.68265   39.96642
  43.28494   43.34011   45.69394   48.65048   50.99974   52.08178   54.52692   57.87523
 kpt# 872, nband= 24, wtk=  1.00000, kpt=  0.2500 -0.1330  0.2500 (reduced coord)
 -39.56732  -16.06103  -15.59917  -15.36627   12.02240   13.24702   14.64674   16.11509
  18.31377   19.59876   28.29898   31.05599   32.94982   33.29374   37.66687   40.02226
  43.27375   43.31796   45.66632   48.74463   51.09649   52.17868   54.38288   57.73159
 kpt# 873, nband= 24, wtk=  1.00000, kpt=  0.2500 -0.1294  0.2500 (reduced coord)
 -39.56700  -16.06851  -15.60098  -15.35962   12.02213   13.23980   14.62164   16.14756
  18.34827   19.63209   28.25708   30.98872   32.92079   33.30580   37.65326   40.07747
  43.22645   43.33314   45.64186   48.84107   51.19111   52.26613   54.24943   57.58962
 kpt# 874, nband= 24, wtk=  1.00000, kpt=  0.2500 -0.1259  0.2500 (reduced coord)
 -39.56668  -16.07588  -15.60284  -15.35310   12.02185   13.23272   14.59729   16.18049
  18.38055   19.66801   28.21504   30.92111   32.88862   33.31804   37.64166   40.13190
  43.17866   43.35031   45.62066   48.93956   51.28327   52.34081   54.12991   57.44978
 kpt# 875, nband= 24, wtk=  1.00000, kpt=  0.2500 -0.1223  0.2500 (reduced coord)
 -39.56635  -16.08316  -15.60483  -15.34688   12.02158   13.22578   14.57370   16.21386
  18.41054   19.70653   28.17285   30.85319   32.85327   33.33037   37.63190   40.18527
  43.13346   43.36661   45.60280   49.03977   51.37253   52.39839   54.02861   57.31247
 kpt# 876, nband= 24, wtk=  1.00000, kpt=  0.2500 -0.1188  0.2500 (reduced coord)
 -39.56602  -16.09029  -15.60676  -15.34068   12.02132   13.21902   14.55089   16.24764
  18.43826   19.74763   28.13056   30.78503   32.81509   33.34304   37.62375   40.23771
  43.09142   43.38174   45.58841   49.14151   51.45849   52.43400   53.95060   57.17819
 kpt# 877, nband= 24, wtk=  1.00000, kpt=  0.2500 -0.1152  0.2500 (reduced coord)
 -39.56567  -16.09729  -15.60874  -15.33463   12.02107   13.21244   14.52886   16.28181
  18.46373   19.79128   28.08815   30.71666   32.77405   33.35596   37.61701   40.28893
  43.05284   43.39565   45.57756   49.24443   51.54062   52.44300   53.90050   57.04750
 kpt# 878, nband= 24, wtk=  1.00000, kpt=  0.2500 -0.1117  0.2500 (reduced coord)
 -39.56533  -16.10416  -15.61075  -15.32863   12.02086   13.20605   14.50762   16.31634
  18.48698   19.83739   28.04568   30.64812   32.73032   33.36914   37.61153   40.33882
  43.01793   43.40846   45.57035   49.34821   51.61834   52.42293   53.88093   56.92099
 kpt# 879, nband= 24, wtk=  1.00000, kpt=  0.2500 -0.1082  0.2500 (reduced coord)
 -39.56497  -16.11089  -15.61280  -15.32294   12.02066   13.19986   14.48717   16.35120
  18.50808   19.88588   28.00310   30.57945   32.68397   33.38260   37.60688   40.38722
  42.98684   43.42003   45.56687   49.45245   51.69102   52.37471   53.89105   56.79934
 kpt# 880, nband= 24, wtk=  1.00000, kpt=  0.2500 -0.1046  0.2500 (reduced coord)
 -39.56461  -16.11747  -15.61489  -15.31742   12.02051   13.19388   14.46749   16.38638
  18.52714   19.93662   27.96043   30.51070   32.63518   33.39637   37.60291   40.43403
  42.95971   43.43053   45.56720   49.55672   51.75796   52.30249   53.92699   56.68326
 kpt# 881, nband= 24, wtk=  1.00000, kpt=  0.2500 -0.1011  0.2500 (reduced coord)
 -39.56424  -16.12391  -15.61701  -15.31209   12.02041   13.18812   14.44860   16.42184
  18.54426   19.98950   27.91769   30.44188   32.58411   33.41045   37.59939   40.47913
  42.93667   43.44005   45.57143   49.66050   51.81839   52.21194   53.98337   56.57354
 kpt# 882, nband= 24, wtk=  1.00000, kpt=  0.2500 -0.0975  0.2500 (reduced coord)
 -39.56387  -16.13019  -15.61917  -15.30695   12.02036   13.18258   14.43050   16.45757
  18.55955   20.04438   27.87487   30.37305   32.53090   33.42488   37.59608   40.52241
  42.91778   43.44869   45.57961   49.76312   51.87150   52.10873   54.05499   56.47103
 kpt# 883, nband= 24, wtk=  1.00000, kpt=  0.2500 -0.0940  0.2500 (reduced coord)
 -39.56349  -16.13631  -15.62136  -15.30200   12.02037   13.17728   14.41317   16.49354
  18.57313   20.10111   27.83197   30.30424   32.47572   33.43966   37.59275   40.56378
  42.90308   43.45658   45.59180   49.86373   51.91642   51.99778   54.13757   56.37658
 kpt# 884, nband= 24, wtk=  1.00000, kpt=  0.2500 -0.0904  0.2500 (reduced coord)
 -39.56310  -16.14228  -15.62358  -15.29725   12.02047   13.17221   14.39660   16.52973
  18.58512   20.15957   27.78899   30.23548   32.41871   33.45482   37.58920   40.60315
  42.89256   43.46386   45.60806   49.96116   51.88329   51.95229   54.22789   56.29109
 kpt# 885, nband= 24, wtk=  1.00000, kpt=  0.2500 -0.0869  0.2500 (reduced coord)
 -39.56271  -16.14829  -15.62584  -15.29273   12.02064   13.16739   14.38077   16.56612
  18.59564   20.21948   27.74591   30.16679   32.36004   33.47037   37.58521   40.64046
  42.88616   43.47069   45.62842   50.05354   51.76892   51.97822   54.32359   56.21540
 kpt# 886, nband= 24, wtk=  1.00000, kpt=  0.2500 -0.0833  0.2500 (reduced coord)
 -39.56232  -16.15424  -15.62841  -15.28882   12.02091   13.16278   14.36565   16.60266
  18.60479   20.28081   27.70271   30.09821   32.29961   33.48605   37.58059   40.67528
  42.88361   43.47723   45.65289   50.13864   51.65868   51.99333   54.42277   56.15027
 kpt# 887, nband= 24, wtk=  1.00000, kpt=  0.2500 -0.0798  0.2500 (reduced coord)
 -39.56192  -16.15961  -15.63065  -15.28419   12.02131   13.15846   14.35136   16.63941
  18.61278   20.34363   27.65948   30.02982   32.23825   33.50243   37.57559   40.70829
  42.88501   43.48414   45.68154   50.21342   51.55717   51.99729   54.52478   56.09648
 kpt# 888, nband= 24, wtk=  1.00000, kpt=  0.2500 -0.0762  0.2500 (reduced coord)
 -39.56151  -16.16490  -15.63299  -15.28029   12.02182   13.15440   14.33775   16.67625
  18.61960   20.40764   27.61608   29.96156   32.17548   33.51926   37.56949   40.73911
  42.88991   43.49122   45.71432   50.27260   51.46986   51.98924   54.62829   56.05450
 kpt# 889, nband= 24, wtk=  1.00000, kpt=  0.2500 -0.0727  0.2500 (reduced coord)
 -39.56110  -16.16995  -15.63503  -15.27646   12.02247   13.15064   14.32487   16.71328
  18.62540   20.47275   27.57259   29.89353   32.11162   33.53657   37.56245   40.76772
  42.89803   43.49910   45.75147   50.30988   51.40372   51.96894   54.73279   56.02469
 kpt# 890, nband= 24, wtk=  1.00000, kpt=  0.2500 -0.0691  0.2500 (reduced coord)
 -39.56069  -16.17487  -15.63742  -15.27300   12.02326   13.14712   14.31267   16.75031
  18.63025   20.53883   27.52892   29.82571   32.04680   33.55433   37.55440   40.79411
  42.90867   43.50823   45.79248   50.31880   51.36529   51.93628   54.83765   56.00705
 kpt# 891, nband= 24, wtk=  1.00000, kpt=  0.2500 -0.0656  0.2500 (reduced coord)
 -39.56027  -16.17961  -15.63984  -15.26976   12.02421   13.14386   14.30113   16.78741
  18.63425   20.60580   27.48509   29.75814   31.98115   33.57259   37.54531   40.81829
  42.92131   43.51922   45.83756   50.29591   51.35837   51.89138   54.94251   56.00148
 kpt# 892, nband= 24, wtk=  1.00000, kpt=  0.2500 -0.0621  0.2500 (reduced coord)
 -39.55985  -16.18415  -15.64228  -15.26674   12.02534   13.14087   14.29025   16.82456
  18.63748   20.67357   27.44110   29.69085   31.91477   33.59136   37.53515   40.84030
  42.93519   43.53277   45.88666   50.24303   51.38131   51.83459   55.04707   56.00761
 kpt# 893, nband= 24, wtk=  1.00000, kpt=  0.2500 -0.0585  0.2500 (reduced coord)
 -39.55942  -16.18851  -15.64475  -15.26396   12.02665   13.13816   14.28001   16.86172
  18.64001   20.74205   27.39694   29.62386   31.84778   33.61065   37.52394   40.86015
  42.94944   43.54965   45.93972   50.16611   51.42824   51.76645   55.15106   56.02487
 kpt# 894, nband= 24, wtk=  1.00000, kpt=  0.2500 -0.0550  0.2500 (reduced coord)
 -39.55900  -16.19267  -15.64723  -15.26140   12.02816   13.13572   14.27038   16.89890
  18.64190   20.81117   27.35258   29.55721   31.78029   33.63048   37.51170   40.87792
  42.96311   43.57070   45.99665   50.07204   51.49231   51.68764   55.25427   56.05252
 kpt# 895, nband= 24, wtk=  1.00000, kpt=  0.2500 -0.0514  0.2500 (reduced coord)
 -39.55856  -16.19663  -15.64973  -15.25908   12.02989   13.13356   14.26135   16.93605
  18.64322   20.88086   27.30801   29.49091   31.71238   33.65087   37.49849   40.89364
  42.97527   43.59672   46.05739   49.96656   51.56782   51.59895   55.35650   56.08975
 kpt# 896, nband= 24, wtk=  1.00000, kpt=  0.2500 -0.0479  0.2500 (reduced coord)
 -39.55813  -16.20040  -15.65225  -15.25700   12.03185   13.13167   14.25288   16.97317
  18.64402   20.95106   27.26323   29.42498   31.64414   33.67184   37.48438   40.90738
  42.98506   43.62843   46.12184   49.85378   51.50122   51.65066   55.45760   56.13564
 kpt# 897, nband= 24, wtk=  1.00000, kpt=  0.2500 -0.0443  0.2500 (reduced coord)
 -39.55769  -16.20396  -15.65478  -15.25491   12.03405   13.13006   14.24498   17.01023
  18.64436   21.02169   27.21826   29.35946   31.57576   33.69340   37.46955   40.91922
  42.99186   43.66645   46.18991   49.73651   51.39531   51.73808   55.55743   56.18929
 kpt# 898, nband= 24, wtk=  1.00000, kpt=  0.2500 -0.0408  0.2500 (reduced coord)
 -39.55725  -16.20732  -15.65733  -15.25330   12.03650   13.12872   14.23759   17.04721
  18.64427   21.09272   27.17300   29.29436   31.50712   33.71557   37.45389   40.92924
  42.99507   43.71083   46.26150   49.61666   51.28206   51.82802   55.65578   56.24977
 kpt# 899, nband= 24, wtk=  1.00000, kpt=  0.2500 -0.0372  0.2500 (reduced coord)
 -39.55681  -16.21048  -15.65990  -15.25194   12.03922   13.12766   14.23070   17.08409
  18.64382   21.16408   27.12749   29.22970   31.43837   33.73836   37.43762   40.93752
  42.99451   43.76172   46.33650   49.49555   51.16226   51.91920   55.75254   56.31621
 kpt# 900, nband= 24, wtk=  1.00000, kpt=  0.2500 -0.0337  0.2500 (reduced coord)
 -39.55636  -16.21343  -15.66247  -15.25082   12.04222   13.12687   14.22430   17.12086
  18.64303   21.23573   27.08171   29.16550   31.36958   33.76180   37.42085   40.94414
  42.99016   43.81893   46.41479   49.37413   51.03665   52.01068   55.84755   56.38778
 kpt# 901, nband= 24, wtk=  1.00000, kpt=  0.2500 -0.0301  0.2500 (reduced coord)
 -39.55592  -16.21617  -15.66506  -15.24995   12.04552   13.12636   14.21834   17.15749
  18.64194   21.30762   27.03567   29.10179   31.30080   33.78589   37.40372   40.94919
  42.98212   43.88212   46.49628   49.25308   50.90593   52.10173   55.94064   56.46368
 kpt# 902, nband= 24, wtk=  1.00000, kpt=  0.2500 -0.0266  0.2500 (reduced coord)
 -39.55547  -16.21846  -15.66752  -15.24918   12.04917   13.12612   14.21287   17.19402
  18.64059   21.37974   26.98943   29.03863   31.23214   33.81067   37.38639   40.95277
  42.97065   43.95087   46.58088   49.13300   50.77075   52.19184   56.03184   56.54324
 kpt# 903, nband= 24, wtk=  1.00000, kpt=  0.2500 -0.0230  0.2500 (reduced coord)
 -39.55502  -16.22078  -15.67013  -15.24880   12.05309   13.12614   14.20774   17.23032
  18.63902   21.45200   26.94282   28.97594   31.16353   33.83613   37.36891   40.95495
  42.95588   44.02461   46.66842   49.01427   50.63157   52.28053   56.12052   56.62565
 kpt# 904, nband= 24, wtk=  1.00000, kpt=  0.2500 -0.0195  0.2500 (reduced coord)
 -39.55457  -16.22289  -15.67274  -15.24866   12.05734   13.12643   14.20300   17.26642
  18.63724   21.52440   26.89592   28.91379   31.09508   33.86230   37.35147   40.95584
  42.93810   44.10287   46.75881   48.89731   50.48893   52.36746   56.20667   56.71029
 kpt# 905, nband= 24, wtk=  1.00000, kpt=  0.2500 -0.0160  0.2500 (reduced coord)
 -39.55412  -16.22473  -15.67533  -15.24860   12.06194   13.12698   14.19861   17.30234
  18.63531   21.59689   26.84873   28.85223   31.02695   33.88919   37.33424   40.95552
  42.91760   44.18511   46.85196   48.78247   50.34329   52.45235   56.29002   56.79669
 kpt# 906, nband= 24, wtk=  1.00000, kpt=  0.2500 -0.0124  0.2500 (reduced coord)
 -39.55366  -16.22662  -15.67810  -15.24912   12.06689   13.12777   14.19449   17.33798
  18.63321   21.66933   26.80125   28.79117   30.95886   33.91668   37.31722   40.95402
  42.89441   44.27071   46.94765   48.67001   50.19491   52.53482   56.37018   56.88405
 kpt# 907, nband= 24, wtk=  1.00000, kpt=  0.2500 -0.0089  0.2500 (reduced coord)
 -39.55321  -16.22808  -15.68073  -15.24973   12.07220   13.12884   14.19071   17.37340
  18.63100   21.74192   26.75348   28.73075   30.89103   33.94508   37.30066   40.95153
  42.86880   44.35933   47.04596   48.56044   50.04436   52.61491   56.44692   56.97157
 kpt# 908, nband= 24, wtk=  1.00000, kpt=  0.2500 -0.0053  0.2500 (reduced coord)
 -39.55276  -16.22932  -15.68337  -15.25059   12.07789   13.13016   14.18721   17.40855
  18.62869   21.81452   26.70542   28.67093   30.82346   33.97424   37.28466   40.94807
  42.84091   44.45032   47.14671   48.45403   49.89183   52.69231   56.51979   57.05913
 kpt# 909, nband= 24, wtk=  1.00000, kpt=  0.2500 -0.0018  0.2500 (reduced coord)
 -39.55230  -16.23035  -15.68600  -15.25170   12.08397   13.13174   14.18395   17.44342
  18.62631   21.88710   26.65709   28.61174   30.75615   34.00420   37.26933   40.94373
  42.81085   44.54310   47.24979   48.35117   49.73760   52.76686   56.58834   57.14594
 kpt# 910, nband= 24, wtk=  1.00000, kpt=  0.2500  0.0018  0.2500 (reduced coord)
 -39.55185  -16.23116  -15.68863  -15.25305   12.09044   13.13355   14.18091   17.47799
  18.62388   21.95964   26.60849   28.55319   30.68912   34.03497   37.25480   40.93858
  42.77876   44.63706   47.35511   48.25233   49.58191   52.83841   56.65207   57.23138
 kpt# 911, nband= 24, wtk=  1.00000, kpt=  0.2500  0.0053  0.2500 (reduced coord)
 -39.55140  -16.23174  -15.69126  -15.25465   12.09731   13.13561   14.17807   17.51224
  18.62141   22.03210   26.55963   28.49530   30.62239   34.06656   37.24118   40.93269
  42.74472   44.73151   47.46257   48.15800   49.42497   52.90685   56.71048   57.31480
 kpt# 912, nband= 24, wtk=  1.00000, kpt=  0.2500  0.0089  0.2500 (reduced coord)
 -39.55095  -16.23211  -15.69389  -15.25650   12.10459   13.13791   14.17538   17.54616
  18.61893   22.10448   26.51052   28.43807   30.55595   34.09899   37.22859   40.92612
  42.70882   44.82569   47.57208   48.06881   49.26700   52.97204   56.76302   57.39552
 kpt# 913, nband= 24, wtk=  1.00000, kpt=  0.2500  0.0124  0.2500 (reduced coord)
 -39.55049  -16.23211  -15.69641  -15.25858   12.11231   13.14043   14.17287   17.57974
  18.61647   22.17676   26.46123   28.38171   30.48982   34.13228   37.21712   40.91894
  42.67114   44.91873   47.68363   47.98546   49.10816   53.03396   56.80927   57.47319
 kpt# 914, nband= 24, wtk=  1.00000, kpt=  0.2500  0.0160  0.2500 (reduced coord)
 -39.55004  -16.23204  -15.69903  -15.26091   12.12043   13.14318   14.17044   17.61294
  18.61400   22.24890   26.41167   28.32587   30.42397   34.16644   37.20687   40.91121
  42.63175   45.00961   47.79695   47.90881   48.94863   53.09242   56.84861   57.54645
 kpt# 915, nband= 24, wtk=  1.00000, kpt=  0.2500  0.0195  0.2500 (reduced coord)
 -39.54960  -16.23204  -15.70174  -15.26372   12.12897   13.14612   14.16807   17.64575
  18.61155   22.32071   26.36189   28.27073   30.35835   34.20147   37.19791   40.90289
  42.59067   45.09713   47.83985   47.91197   48.78832   53.14718   56.88020   57.61405
 kpt# 916, nband= 24, wtk=  1.00000, kpt=  0.2500  0.0230  0.2500 (reduced coord)
 -39.54915  -16.23153  -15.70435  -15.26654   12.13796   13.14930   14.16580   17.67817
  18.60917   22.39252   26.31197   28.21632   30.29310   34.23741   37.19037   40.89420
  42.54808   45.18012   47.77977   48.02857   48.62803   53.19859   56.90498   57.67646
 kpt# 917, nband= 24, wtk=  1.00000, kpt=  0.2500  0.0266  0.2500 (reduced coord)
 -39.54870  -16.23079  -15.70694  -15.26961   12.14739   13.15270   14.16357   17.71019
  18.60685   22.46414   26.26191   28.16266   30.22813   34.27428   37.18430   40.88511
  42.50399   45.25704   47.72989   48.14608   48.46813   53.24640   56.92238   57.73255
 kpt# 918, nband= 24, wtk=  1.00000, kpt=  0.2500  0.0301  0.2500 (reduced coord)
 -39.54826  -16.22983  -15.70952  -15.27291   12.15726   13.15629   14.16135   17.74177
  18.60461   22.53555   26.21172   28.10975   30.16344   34.31207   37.17978   40.87567
  42.45846   45.32629   47.69167   48.25289   48.32032   53.29057   56.93260   57.78175
 kpt# 919, nband= 24, wtk=  1.00000, kpt=  0.2500  0.0337  0.2500 (reduced coord)
 -39.54782  -16.22869  -15.71232  -15.27671   12.16759   13.16005   14.15909   17.77290
  18.60243   22.60671   26.16142   28.05758   30.09898   34.35073   37.17683   40.86576
  42.41148   45.38610   47.66658   48.13939   48.39402   53.33078   56.93591   57.82541
 kpt# 920, nband= 24, wtk=  1.00000, kpt=  0.2500  0.0372  0.2500 (reduced coord)
 -39.54738  -16.22729  -15.71488  -15.28050   12.17836   13.16404   14.15683   17.80360
  18.60037   22.67766   26.11109   28.00620   30.03482   34.39044   37.17559   40.85571
  42.36328   45.43522   47.65607   47.97954   48.51566   53.36755   56.93315   57.86089
 kpt# 921, nband= 24, wtk=  1.00000, kpt=  0.2500  0.0408  0.2500 (reduced coord)
 -39.54694  -16.22546  -15.71740  -15.28450   12.18961   13.16820   14.15457   17.83383
  18.59844   22.74834   26.06077   27.95567   29.97092   34.43114   37.17606   40.84542
  42.31386   45.47225   47.66125   47.81851   48.64002   53.40060   56.92498   57.88711
 kpt# 922, nband= 24, wtk=  1.00000, kpt=  0.2500  0.0443  0.2500 (reduced coord)
 -39.54651  -16.22380  -15.71994  -15.28881   12.20129   13.17254   14.15217   17.86358
  18.59659   22.81861   26.01041   27.90586   29.90723   34.47282   37.17829   40.83490
  42.26325   45.49633   47.65721   47.68282   48.76594   53.42988   56.91186   57.91538
 kpt# 923, nband= 24, wtk=  1.00000, kpt=  0.2500  0.0479  0.2500 (reduced coord)
 -39.54607  -16.22174  -15.72245  -15.29329   12.21343   13.17704   14.14967   17.89285
  18.59489   22.88871   25.96010   27.85686   29.84380   34.51551   37.18233   40.82421
  42.21160   45.50722   47.49602   47.72090   48.89331   53.45546   56.89516   57.94429
 kpt# 924, nband= 24, wtk=  1.00000, kpt=  0.2500  0.0514  0.2500 (reduced coord)
 -39.54565  -16.21947  -15.72495  -15.29799   12.22603   13.18172   14.14704   17.92161
  18.59332   22.95850   25.90988   27.80868   29.78058   34.55922   37.18822   40.81334
  42.15895   45.50527   47.33500   47.77502   49.02201   53.47733   56.87551   57.95794
 kpt# 925, nband= 24, wtk=  1.00000, kpt=  0.2500  0.0550  0.2500 (reduced coord)
 -39.54522  -16.21697  -15.72742  -15.30292   12.23909   13.18654   14.14427   17.94986
  18.59190   23.02796   25.85978   27.76131   29.71758   34.60397   37.19597   40.80234
  42.10539   45.49131   47.17423   47.84420   49.15196   53.49550   56.85369   57.95382
 kpt# 926, nband= 24, wtk=  1.00000, kpt=  0.2500  0.0585  0.2500 (reduced coord)
 -39.54480  -16.21426  -15.72987  -15.30807   12.25260   13.19151   14.14133   17.97759
  18.59062   23.09707   25.80986   27.71478   29.65478   34.64976   37.20561   40.79121
  42.05101   45.46656   47.01377   47.92709   49.28312   53.51003   56.83047   57.95149
 kpt# 927, nband= 24, wtk=  1.00000, kpt=  0.2500  0.0621  0.2500 (reduced coord)
 -39.54438  -16.21135  -15.73226  -15.31335   12.26656   13.19662   14.13820   18.00483
  18.58950   23.16579   25.76015   27.66910   29.59230   34.69662   37.21713   40.77997
  41.99592   45.43241   46.85370   48.02219   49.41543   53.52094   56.80647   57.95014
 kpt# 928, nband= 24, wtk=  1.00000, kpt=  0.2500  0.0656  0.2500 (reduced coord)
 -39.54397  -16.20821  -15.73466  -15.31894   12.28097   13.20186   14.13486   18.03149
  18.58854   23.23412   25.71071   27.62425   29.52987   34.74455   37.23058   40.76864
  41.94014   45.39017   46.69407   48.12800   49.54883   53.52835   56.78235   57.94965
 kpt# 929, nband= 24, wtk=  1.00000, kpt=  0.2500  0.0691  0.2500 (reduced coord)
 -39.54356  -16.20500  -15.73715  -15.32474   12.29584   13.20717   14.13127   18.05761
  18.58774   23.30198   25.66159   27.58024   29.46759   34.79357   37.24595   40.75723
  41.88379   45.34115   46.53484   48.24310   49.68319   53.53223   56.75859   57.94856
 kpt# 930, nband= 24, wtk=  1.00000, kpt=  0.2500  0.0727  0.2500 (reduced coord)
 -39.54316  -16.20143  -15.73950  -15.33075   12.31116   13.21264   14.12746   18.08317
  18.58712   23.36945   25.61286   27.53710   29.40550   34.84368   37.26323   40.74574
  41.82700   45.28652   46.37625   48.36622   49.81866   53.53287   56.73563   57.94501
 kpt# 931, nband= 24, wtk=  1.00000, kpt=  0.2500  0.0762  0.2500 (reduced coord)
 -39.54276  -16.19765  -15.74184  -15.33697   12.32691   13.21821   14.12338   18.10817
  18.58666   23.43645   25.56457   27.49483   29.34357   34.89490   37.28242   40.73418
  41.76986   45.22722   46.21825   48.49623   49.95511   53.53031   56.71384   57.94062
 kpt# 932, nband= 24, wtk=  1.00000, kpt=  0.2500  0.0798  0.2500 (reduced coord)
 -39.54236  -16.19336  -15.74410  -15.34323   12.34313   13.22389   14.11913   18.13263
  18.58643   23.50295   25.51679   27.45346   29.28192   34.94725   37.30352   40.72256
  41.71248   45.16415   46.06090   48.63221   50.09257   53.52470   56.69372   57.93537
 kpt# 933, nband= 24, wtk=  1.00000, kpt=  0.2500  0.0833  0.2500 (reduced coord)
 -39.54197  -16.18916  -15.74638  -15.34985   12.35975   13.22964   14.11447   18.15649
  18.58632   23.56889   25.46958   27.41293   29.22028   35.00072   37.32648   40.71087
  41.65492   45.09784   45.90424   48.77331   50.23085   53.51618   56.67510   57.93009
 kpt# 934, nband= 24, wtk=  1.00000, kpt=  0.2500  0.0869  0.2500 (reduced coord)
 -39.54159  -16.18476  -15.74862  -15.35668   12.37681   13.23548   14.10950   18.17978
  18.58639   23.63423   25.42302   27.37327   29.15879   35.05533   37.35128   40.69910
  41.59733   45.02889   45.74831   48.91886   50.36998   53.50495   56.65837   57.92457
 kpt# 935, nband= 24, wtk=  1.00000, kpt=  0.2500  0.0904  0.2500 (reduced coord)
 -39.54121  -16.18015  -15.75084  -15.36369   12.39428   13.24138   14.10420   18.20248
  18.58662   23.69892   25.37721   27.33450   29.09744   35.11109   37.37790   40.68727
  41.53980   44.95775   45.59318   49.06828   50.50994   53.49120   56.64368   57.91897
 kpt# 936, nband= 24, wtk=  1.00000, kpt=  0.2500  0.0940  0.2500 (reduced coord)
 -39.54084  -16.17556  -15.75325  -15.37121   12.41214   13.24730   14.09853   18.22454
  18.58703   23.76269   25.33221   27.29659   29.03618   35.16786   37.40629   40.67516
  41.48241   44.88472   45.43882   49.22091   50.65044   53.47502   56.63095   57.91354
 kpt# 937, nband= 24, wtk=  1.00000, kpt=  0.2500  0.0975  0.2500 (reduced coord)
 -39.54047  -16.17054  -15.75540  -15.37860   12.43043   13.25331   14.09253   18.24607
  18.58761   23.82585   25.28821   27.25959   28.97510   35.22595   37.43643   40.66315
  41.42534   44.81018   45.28542   49.37664   50.79192   53.45693   56.62058   57.90807
 kpt# 938, nband= 24, wtk=  1.00000, kpt=  0.2500  0.1011  0.2500 (reduced coord)
 -39.54011  -16.16533  -15.75752  -15.38618   12.44913   13.25937   14.08616   18.26701
  18.58836   23.88809   25.24532   27.22349   28.91416   35.28521   37.46827   40.65102
  41.36868   44.73430   45.13295   49.53492   50.93410   53.43703   56.61242   57.90282
 kpt# 939, nband= 24, wtk=  1.00000, kpt=  0.2500  0.1046  0.2500 (reduced coord)
 -39.53975  -16.15992  -15.75960  -15.39392   12.46821   13.26545   14.07941   18.28737
  18.58927   23.94928   25.20371   27.18828   28.85336   35.34565   37.50174   40.63876
  41.31253   44.65726   44.98148   49.69539   51.07695   53.41560   56.60648   57.89785
 kpt# 940, nband= 24, wtk=  1.00000, kpt=  0.2500  0.1082  0.2500 (reduced coord)
 -39.53940  -16.15431  -15.76165  -15.40184   12.48767   13.27155   14.07226   18.30713
  18.59034   24.00923   25.16360   27.15396   28.79269   35.40727   37.53680   40.62635
  41.25702   44.57921   44.83105   49.85774   51.22043   53.39293   56.60274   57.89321
 kpt# 941, nband= 24, wtk=  1.00000, kpt=  0.2500  0.1117  0.2500 (reduced coord)
 -39.53906  -16.14863  -15.76376  -15.41021   12.50747   13.27763   14.06469   18.32628
  18.59156   24.06764   25.12521   27.12054   28.73214   35.47009   37.57336   40.61374
  41.20225   44.50017   44.68164   50.02146   51.36437   53.36904   56.60103   57.88901
 kpt# 942, nband= 24, wtk=  1.00000, kpt=  0.2500  0.1152  0.2500 (reduced coord)
 -39.53872  -16.14264  -15.76573  -15.41847   12.52767   13.28375   14.05673   18.34486
  18.59294   24.12433   25.08898   27.08802   28.67176   35.53410   37.61138   40.60094
  41.14839   44.42043   44.53350   50.18660   51.50899   53.34484   56.60153   57.88527
 kpt# 943, nband= 24, wtk=  1.00000, kpt=  0.2500  0.1188  0.2500 (reduced coord)
 -39.53839  -16.13646  -15.76766  -15.42688   12.54822   13.28987   14.04834   18.36285
  18.59446   24.17879   25.05534   27.05640   28.61151   35.59932   37.65076   40.58789
  41.09554   44.33996   44.38659   50.35265   51.65411   53.32041   56.60408   57.88199
 kpt# 944, nband= 24, wtk=  1.00000, kpt=  0.2500  0.1223  0.2500 (reduced coord)
 -39.53807  -16.13009  -15.76955  -15.43545   12.56911   13.29596   14.03952   18.38026
  18.59612   24.23045   25.02488   27.02567   28.55142   35.66574   37.69143   40.57455
  41.04385   44.24099   44.25883   50.51926   51.79969   53.29614   56.60861   57.87923
 kpt# 945, nband= 24, wtk=  1.00000, kpt=  0.2500  0.1259  0.2500 (reduced coord)
 -39.53775  -16.12342  -15.77140  -15.44416   12.59034   13.30203   14.03031   18.39708
  18.59791   24.27853   24.99844   26.99584   28.49147   35.73337   37.73327   40.56085
  40.99343   44.09679   44.17713   50.68604   51.94568   53.27251   56.61505   57.87715
 kpt# 946, nband= 24, wtk=  1.00000, kpt=  0.2500  0.1294  0.2500 (reduced coord)
 -39.53744  -16.11669  -15.77322  -15.45327   12.61182   13.30806   14.02061   18.41331
  18.59982   24.32202   24.97702   26.96690   28.43167   35.80220   37.77620   40.54675
  40.94443   43.95405   44.09475   50.85224   52.09203   53.24991   56.62318   57.87545
 kpt# 947, nband= 24, wtk=  1.00000, kpt=  0.2500  0.1330  0.2500 (reduced coord)
 -39.53714  -16.10992  -15.77502  -15.46236   12.63366   13.31403   14.01042   18.42898
  18.60181   24.35964   24.96193   26.93885   28.37202   35.87225   37.82009   40.53215
  40.89700   43.81288   44.01187   51.01759   52.23867   53.22917   56.63318   57.87447
 kpt# 948, nband= 24, wtk=  1.00000, kpt=  0.2500  0.1365  0.2500 (reduced coord)
 -39.53685  -16.10284  -15.77674  -15.47150   12.65580   13.31996   13.99981   18.44407
  18.60394   24.39009   24.95459   26.91170   28.31254   35.94351   37.86485   40.51703
  40.85130   43.67338   43.92853   51.18140   52.38559   53.21105   56.64486   57.87407
 kpt# 949, nband= 24, wtk=  1.00000, kpt=  0.2500  0.1401  0.2500 (reduced coord)
 -39.53656  -16.09548  -15.77845  -15.48111   12.67816   13.32581   13.98883   18.45857
  18.60615   24.41211   24.95613   26.88548   28.25321   36.01597   37.91023   40.50124
  40.80746   43.53562   43.84468   51.34236   52.53269   53.19644   56.65801   57.87435
 kpt# 950, nband= 24, wtk=  1.00000, kpt=  0.2500  0.1436  0.2500 (reduced coord)
 -39.53628  -16.08806  -15.78009  -15.49051   12.70084   13.33161   13.97730   18.47253
  18.60846   24.42512   24.96737   26.86010   28.19405   36.08965   37.95628   40.48473
  40.76568   43.39983   43.76044   51.49958   52.67992   53.18682   56.67286   57.87530
 kpt# 951, nband= 24, wtk=  1.00000, kpt=  0.2500  0.1472  0.2500 (reduced coord)
 -39.53601  -16.08048  -15.78167  -15.50003   12.72379   13.33732   13.96530   18.48593
  18.61084   24.42939   24.98797   26.83561   28.13506   36.16454   38.00275   40.46736
  40.72611   43.26609   43.67578   51.65117   52.82721   53.18383   56.68920   57.87694
 kpt# 952, nband= 24, wtk=  1.00000, kpt=  0.2500  0.1507  0.2500 (reduced coord)
 -39.53575  -16.07291  -15.78322  -15.50987   12.74692   13.34293   13.95283   18.49878
  18.61327   24.42600   25.01672   26.81200   28.07623   36.24062   38.04935   40.44899
  40.68893   43.13456   43.59073   51.79478   52.97445   53.18969   56.70691   57.87929
 kpt# 953, nband= 24, wtk=  1.00000, kpt=  0.2500  0.1543  0.2500 (reduced coord)
 -39.53549  -16.06500  -15.78472  -15.51961   12.77033   13.34844   13.93989   18.51109
  18.61577   24.41651   25.05241   26.78927   28.01758   36.31790   38.09616   40.42946
  40.65435   43.00543   43.50532   51.92766   53.12159   53.20737   56.72612   57.88237
 kpt# 954, nband= 24, wtk=  1.00000, kpt=  0.2500  0.1578  0.2500 (reduced coord)
 -39.53525  -16.05694  -15.78616  -15.52947   12.79396   13.35385   13.92649   18.52286
  18.61831   24.40247   25.09336   26.76742   27.95911   36.39637   38.14286   40.40860
  40.62256   42.87891   43.41959   52.04636   53.24017   53.26852   56.74671   57.88620
 kpt# 955, nband= 24, wtk=  1.00000, kpt=  0.2500  0.1613  0.2500 (reduced coord)
 -39.53501  -16.04872  -15.78756  -15.53942   12.81778   13.35913   13.91262   18.53410
  18.62088   24.38524   25.13824   26.74644   27.90081   36.47602   38.18924   40.38621
  40.59376   42.75522   43.33355   52.14758   53.29135   53.41512   56.76867   57.89089
 kpt# 956, nband= 24, wtk=  1.00000, kpt=  0.2500  0.1649  0.2500 (reduced coord)
 -39.53478  -16.04015  -15.78889  -15.54945   12.84179   13.36428   13.89837   18.54483
  18.62348   24.36588   25.18602   26.72634   27.84270   36.55684   38.23510   40.36206
  40.56818   42.63462   43.24724   52.22900   53.36314   53.56135   56.79202   57.89677
 kpt# 957, nband= 24, wtk=  1.00000, kpt=  0.2500  0.1684  0.2500 (reduced coord)
 -39.53456  -16.03165  -15.79018  -15.55958   12.86597   13.36930   13.88358   18.55503
  18.62608   24.34521   25.23592   26.70709   27.78476   36.63882   38.28020   40.33590
  40.54603   42.51736   43.16070   52.29027   53.45578   53.70691   56.81675   57.90280
 kpt# 958, nband= 24, wtk=  1.00000, kpt=  0.2500  0.1720  0.2500 (reduced coord)
 -39.53434  -16.02290  -15.79143  -15.56978   12.89030   13.37417   13.86836   18.56472
  18.62868   24.32382   25.28736   26.68869   27.72702   36.72195   38.32432   40.30745
  40.52755   42.40376   43.07397   52.33321   53.56736   53.85173   56.84292   57.91021
 kpt# 959, nband= 24, wtk=  1.00000, kpt=  0.2500  0.1755  0.2500 (reduced coord)
 -39.53414  -16.01411  -15.79262  -15.58008   12.91476   13.37889   13.85264   18.57391
  18.63126   24.30215   25.33993   26.67116   27.66943   36.80622   38.36720   40.27640
  40.51295   42.29416   42.98707   52.36093   53.69451   53.99563   56.87059   57.91865
 kpt# 960, nband= 24, wtk=  1.00000, kpt=  0.2500  0.1791  0.2500 (reduced coord)
 -39.53395  -16.00519  -15.79376  -15.59046   12.93934   13.38344   13.83648   18.58261
  18.63381   24.28055   25.39332   26.65447   27.61203   36.89160   38.40862   40.24243
  40.50246   42.18889   42.90005   52.37692   53.83356   54.13841   56.89987   57.92819
 kpt# 961, nband= 24, wtk=  1.00000, kpt=  0.2500  0.1826  0.2500 (reduced coord)
 -39.53376  -15.99614  -15.79485  -15.60090   12.96403   13.38783   13.81987   18.59083
  18.63632   24.25925   25.44731   26.63863   27.55480   36.97809   38.44834   40.20522
  40.49630   42.08833   42.81296   52.38430   53.98112   54.27983   56.93090   57.93852
 kpt# 962, nband= 24, wtk=  1.00000, kpt=  0.2500  0.1862  0.2500 (reduced coord)
 -39.53358  -15.98696  -15.79589  -15.61141   12.98881   13.39204   13.80281   18.59857
  18.63878   24.23846   25.50174   26.62363   27.49775   37.06565   38.48614   40.16444
  40.49467   41.99284   42.72584   52.38551   54.13440   54.41963   56.96389   57.95042
 kpt# 963, nband= 24, wtk=  1.00000, kpt=  0.2500  0.1897  0.2500 (reduced coord)
 -39.53341  -15.97766  -15.79711  -15.62199   13.01366   13.39603   13.78532   18.60583
  18.64116   24.21833   25.55642   26.60938   27.44083   37.15427   38.52181   40.11969
  40.49772   41.90274   42.63870   52.38240   54.29105   54.55737   56.99902   57.96346
 kpt# 964, nband= 24, wtk=  1.00000, kpt=  0.2500  0.1933  0.2500 (reduced coord)
 -39.53326  -15.96825  -15.79804  -15.63261   13.03856   13.39987   13.76740   18.61264
  18.64349   24.19897   25.61137   26.59606   27.38411   37.24392   38.55520   40.07083
  40.50562   41.81839   42.55170   52.37638   54.44931   54.69298   57.03677   57.97821
 kpt# 965, nband= 24, wtk=  1.00000, kpt=  0.2500  0.1968  0.2500 (reduced coord)
 -39.53311  -15.95871  -15.79892  -15.64327   13.06351   13.40350   13.74907   18.61899
  18.64573   24.18048   25.66647   26.58357   27.32755   37.33457   38.58616   40.01759
  40.51846   41.74003   42.46483   52.36842   54.60751   54.82591   57.07749   57.99464
 kpt# 966, nband= 24, wtk=  1.00000, kpt=  0.2500  0.2004  0.2500 (reduced coord)
 -39.53297  -15.94907  -15.79974  -15.65397   13.08848   13.40693   13.73033   18.62490
  18.64788   24.16294   25.72166   26.57190   27.27114   37.42618   38.61460   39.95981
  40.53629   41.66785   42.37818   52.35928   54.76416   54.95571   57.12171   58.01293
 kpt# 967, nband= 24, wtk=  1.00000, kpt=  0.2500  0.2039  0.2500 (reduced coord)
 -39.53283  -15.93933  -15.80050  -15.66471   13.11345   13.41015   13.71118   18.63036
  18.64993   24.14642   25.77690   26.56106   27.21489   37.51873   38.64045   39.89744
  40.55912   41.60194   42.29180   52.34948   54.91783   55.08185   57.17005   58.03316
 kpt# 968, nband= 24, wtk=  1.00000, kpt=  0.2500  0.2074  0.2500 (reduced coord)
 -39.53271  -15.92952  -15.80128  -15.67563   13.13839   13.41316   13.69164   18.63539
  18.65185   24.13095   25.83213   26.55092   27.15876   37.61213   38.66369   39.83052
  40.58686   41.54228   42.20576   52.33944   55.06706   55.20371   57.22306   58.05595
 kpt# 969, nband= 24, wtk=  1.00000, kpt=  0.2500  0.2110  0.2500 (reduced coord)
 -39.53260  -15.91957  -15.80193  -15.68643   13.16332   13.41594   13.67172   18.63999
  18.65366   24.11659   25.88739   26.54171   27.10278   37.70641   38.68441   39.75920
  40.61948   41.48882   42.12017   52.32949   55.21035   55.32066   57.28207   58.08142
 kpt# 970, nband= 24, wtk=  1.00000, kpt=  0.2500  0.2145  0.2500 (reduced coord)
 -39.53250  -15.90953  -15.80253  -15.69724   13.18821   13.41850   13.65144   18.64418
  18.65535   24.10339   25.94265   26.53331   27.04693   37.80148   38.70266   39.68372
  40.65679   41.44138   42.03510   52.31986   55.34615   55.43193   57.34782   58.10949
 kpt# 971, nband= 24, wtk=  1.00000, kpt=  0.2500  0.2181  0.2500 (reduced coord)
 -39.53241  -15.89945  -15.80307  -15.70828   13.21299   13.42083   13.63078   18.64794
  18.65685   24.09135   25.99786   26.52572   26.99119   37.89728   38.71852   39.60437
  40.69854   41.39970   41.95063   52.31074   55.47284   55.53667   57.42076   58.14672
 kpt# 972, nband= 24, wtk=  1.00000, kpt=  0.2500  0.2216  0.2500 (reduced coord)
 -39.53232  -15.88925  -15.80356  -15.71912   13.23774   13.42293   13.60979   18.65130
  18.65826   24.08052   26.05307   26.51894   26.93557   37.99374   38.73217   39.52152
  40.74466   41.36350   41.86688   52.30228   55.58898   55.63400   57.50282   58.19185
 kpt# 973, nband= 24, wtk=  1.00000, kpt=  0.2500  0.2252  0.2500 (reduced coord)
 -39.53225  -15.87901  -15.80430  -15.73010   13.26237   13.42474   13.58844   18.65421
  18.65950   24.07092   26.10821   26.51283   26.88002   38.09078   38.74373   39.43554
  40.79482   41.33239   41.78386   52.29459   55.69308   55.72255   57.59386   58.21164
 kpt# 974, nband= 24, wtk=  1.00000, kpt=  0.2500  0.2287  0.2500 (reduced coord)
 -39.53219  -15.86897  -15.80486  -15.74096   13.28691   13.42630   13.56675   18.65672
  18.66058   24.06256   26.16316   26.50766   26.82456   38.18834   38.75337   39.34685
  40.84868   41.30620   41.70178   52.28774   55.78411   55.80182   57.69458   58.25084
 kpt# 975, nband= 24, wtk=  1.00000, kpt=  0.2500  0.2323  0.2500 (reduced coord)
 -39.53213  -15.85855  -15.80517  -15.75179   13.31132   13.42767   13.54479   18.65887
  18.66152   24.05546   26.21828   26.50328   26.76921   38.28632   38.76124   39.25584
  40.90617   41.28461   41.62085   52.28187   55.86146   55.87119   57.80466   58.29519
 kpt# 976, nband= 24, wtk=  1.00000, kpt=  0.2500  0.2358  0.2500 (reduced coord)
 -39.53209  -15.84830  -15.80555  -15.76277   13.33554   13.42877   13.52251   18.66058
  18.66229   24.04964   26.27320   26.49967   26.71392   38.38458   38.76746   39.16285
  40.96684   41.26723   41.54110   52.27696   55.92455   55.92899   57.92302   58.33176
 kpt# 977, nband= 24, wtk=  1.00000, kpt=  0.2500  0.2394  0.2500 (reduced coord)
 -39.53205  -15.83799  -15.80581  -15.77381   13.35958   13.42964   13.49995   18.66190
  18.66287   24.04510   26.32808   26.49688   26.65870   38.48304   38.77213   39.06828
  41.03049   41.25394   41.46270   52.27310   55.97324   55.97494   58.04807   58.39571
 kpt# 978, nband= 24, wtk=  1.00000, kpt=  0.2500  0.2429  0.2500 (reduced coord)
 -39.53203  -15.82740  -15.80595  -15.78459   13.38351   13.43027   13.47714   18.66287
  18.66330   24.04185   26.38315   26.49489   26.60353   38.58154   38.77542   38.97243
  41.09699   41.24464   41.38582   52.27034   56.00794   56.00843   58.17782   58.44308
 kpt# 979, nband= 24, wtk=  1.00000, kpt=  0.2500  0.2465  0.2500 (reduced coord)
 -39.53201  -15.81675  -15.80604  -15.79535   13.40724   13.43065   13.45408   18.66346
  18.66356   24.03990   26.43822   26.49370   26.54840   38.67992   38.77736   38.87559
  41.16599   41.23911   41.31061   52.26868   56.02865   56.02873   58.30867   58.46479
 kpt# 980, nband= 24, wtk=  1.00000, kpt=  0.2500  0.2500  0.2500 (reduced coord)
 -39.53201  -15.80607  -15.80607  -15.80607   13.43077   13.43077   13.43077   18.66365
  18.66365   24.03925   26.49330   26.49330   26.49330   38.77801   38.77801   38.77801
  41.23727   41.23727   41.23727   52.26812   56.03554   56.03554   58.43467   58.43488
 kpt# 981, nband= 24, wtk=  1.00000, kpt=  0.2457  0.2514  0.2514 (reduced coord)
 -39.53201  -15.81222  -15.81222  -15.79371   13.40344   13.44427   13.44427   18.66351
  18.66351   24.03989   26.46167   26.46167   26.55700   38.72089   38.72089   38.89110
  41.19752   41.19752   41.32063   52.26867   56.02909   56.02909   58.30101   58.49359
 kpt# 982, nband= 24, wtk=  1.00000, kpt=  0.2413  0.2529  0.2529 (reduced coord)
 -39.53203  -15.81833  -15.81833  -15.78129   13.37547   13.45774   13.45774   18.66309
  18.66309   24.04176   26.43026   26.43026   26.62114   38.66236   38.66236   39.00476
  41.16166   41.16166   41.40384   52.27028   56.01120   56.01120   58.15806   58.52449
 kpt# 983, nband= 24, wtk=  1.00000, kpt=  0.2370  0.2543  0.2543 (reduced coord)
 -39.53205  -15.82439  -15.82439  -15.76885   13.34693   13.47119   13.47119   18.66238
  18.66238   24.04482   26.39911   26.39911   26.68574   38.60244   38.60244   39.11898
  41.12965   41.12965   41.48681   52.27291   55.98385   55.98385   58.01910   58.52756
 kpt# 984, nband= 24, wtk=  1.00000, kpt=  0.2327  0.2558  0.2558 (reduced coord)
 -39.53208  -15.83029  -15.83029  -15.75585   13.31802   13.48460   13.48460   18.66145
  18.66145   24.04899   26.36827   26.36827   26.75085   38.54117   38.54117   39.23377
  41.10161   41.10161   41.56943   52.27648   55.94910   55.94910   57.88327   58.50877
 kpt# 985, nband= 24, wtk=  1.00000, kpt=  0.2283  0.2572  0.2572 (reduced coord)
 -39.53211  -15.83607  -15.83607  -15.74299   13.28856   13.49794   13.49794   18.66020
  18.66020   24.05422   26.33794   26.33794   26.81653   38.47863   38.47863   39.34913
  41.07728   41.07728   41.65159   52.28097   55.90777   55.90777   57.74925   58.47676
 kpt# 986, nband= 24, wtk=  1.00000, kpt=  0.2240  0.2587  0.2587 (reduced coord)
 -39.53215  -15.84201  -15.84201  -15.73049   13.25863   13.51119   13.51119   18.65862
  18.65862   24.06043   26.30765   26.30765   26.88277   38.41478   38.41478   39.46504
  41.05654   41.05654   41.73318   52.28616   55.86108   55.86108   57.61661   58.43592
 kpt# 987, nband= 24, wtk=  1.00000, kpt=  0.2197  0.2601  0.2601 (reduced coord)
 -39.53219  -15.84789  -15.84789  -15.71800   13.22837   13.52434   13.52434   18.65676
  18.65676   24.06757   26.27770   26.27770   26.94962   38.34974   38.34974   39.58150
  41.03941   41.03941   41.81408   52.29200   55.81015   55.81015   57.48591   58.38955
 kpt# 988, nband= 24, wtk=  1.00000, kpt=  0.2153  0.2616  0.2616 (reduced coord)
 -39.53224  -15.85373  -15.85373  -15.70551   13.19782   13.53738   13.53738   18.65460
  18.65460   24.07557   26.24810   26.24810   27.01713   38.28358   38.28358   39.69851
  41.02581   41.02581   41.89420   52.29833   55.75576   55.75576   57.35737   58.33970
 kpt# 989, nband= 24, wtk=  1.00000, kpt=  0.2110  0.2630  0.2630 (reduced coord)
 -39.53229  -15.85952  -15.85952  -15.69304   13.16704   13.55030   13.55030   18.65215
  18.65215   24.08439   26.21888   26.21888   27.08533   38.21637   38.21637   39.81607
  41.01567   41.01567   41.97342   52.30501   55.69853   55.69853   57.23125   58.28765
 kpt# 990, nband= 24, wtk=  1.00000, kpt=  0.2066  0.2645  0.2645 (reduced coord)
 -39.53234  -15.86526  -15.86526  -15.68059   13.13611   13.56306   13.56306   18.64940
  18.64940   24.09395   26.19006   26.19006   27.15426   38.14820   38.14820   39.93418
  41.00887   41.00887   42.05165   52.31183   55.63899   55.63899   57.10779   58.23420
 kpt# 991, nband= 24, wtk=  1.00000, kpt=  0.2023  0.2659  0.2659 (reduced coord)
 -39.53239  -15.87094  -15.87094  -15.66818   13.10506   13.57566   13.57566   18.64635
  18.64635   24.10419   26.16166   26.16166   27.22395   38.07915   38.07915   40.05283
  41.00534   41.00534   42.12877   52.31858   55.57756   55.57756   56.98725   58.17989
 kpt# 992, nband= 24, wtk=  1.00000, kpt=  0.1980  0.2673  0.2673 (reduced coord)
 -39.53244  -15.87657  -15.87657  -15.65582   13.07396   13.58808   13.58808   18.64300
  18.64300   24.11507   26.13371   26.13371   27.29443   38.00930   38.00930   40.17201
  41.00498   41.00498   42.20468   52.32500   55.51462   55.51462   56.86995   58.12507
 kpt# 993, nband= 24, wtk=  1.00000, kpt=  0.1936  0.2688  0.2688 (reduced coord)
 -39.53248  -15.88144  -15.88144  -15.64341   13.04287   13.60046   13.60046   18.63943
  18.63943   24.12653   26.10649   26.10649   27.36588   37.93874   37.93874   40.29179
  41.00781   41.00781   42.27971   52.33094   55.45141   55.45141   56.75625   58.07010
 kpt# 994, nband= 24, wtk=  1.00000, kpt=  0.1893  0.2702  0.2702 (reduced coord)
 -39.53253  -15.88696  -15.88696  -15.63117   13.01184   13.61247   13.61247   18.63548
  18.63548   24.13851   26.07950   26.07950   27.43805   37.86754   37.86754   40.41203
  41.01348   41.01348   42.35291   52.33580   55.38630   55.38630   56.64646   58.01493
 kpt# 995, nband= 24, wtk=  1.00000, kpt=  0.1850  0.2717  0.2717 (reduced coord)
 -39.53257  -15.89242  -15.89242  -15.61900   12.98093   13.62424   13.62424   18.63123
  18.63123   24.15096   26.05303   26.05303   27.51109   37.79576   37.79576   40.53280
  41.02204   41.02204   42.42461   52.33936   55.32045   55.32045   56.54102   57.95978
 kpt# 996, nband= 24, wtk=  1.00000, kpt=  0.1806  0.2731  0.2731 (reduced coord)
 -39.53260  -15.89783  -15.89783  -15.60691   12.95018   13.63576   13.63576   18.62669
  18.62669   24.16383   26.02711   26.02711   27.58504   37.72351   37.72351   40.65409
  41.03338   41.03338   42.49471   52.34120   55.25406   55.25406   56.44035   57.90475
 kpt# 997, nband= 24, wtk=  1.00000, kpt=  0.1763  0.2746  0.2746 (reduced coord)
 -39.53264  -15.90318  -15.90318  -15.59492   12.91965   13.64701   13.64701   18.62185
  18.62185   24.17708   26.00176   26.00176   27.65992   37.65083   37.65083   40.77590
  41.04743   41.04743   42.56313   52.34088   55.18731   55.18731   56.34494   57.84989
 kpt# 998, nband= 24, wtk=  1.00000, kpt=  0.1720  0.2760  0.2760 (reduced coord)
 -39.53266  -15.90846  -15.90846  -15.58303   12.88940   13.65797   13.65797   18.61671
  18.61671   24.19067   25.97700   25.97700   27.73576   37.57780   37.57780   40.89822
  41.06409   41.06409   42.62978   52.33794   55.12034   55.12034   56.25526   57.79523
 kpt# 999, nband= 24, wtk=  1.00000, kpt=  0.1676  0.2775  0.2775 (reduced coord)
 -39.53268  -15.91369  -15.91369  -15.57125   12.85946   13.66863   13.66863   18.61129
  18.61129   24.20454   25.95285   25.95285   27.81256   37.50449   37.50449   41.02104
  41.08328   41.08328   42.69459   52.33186   55.05328   55.05328   56.17183   57.74083
 kpt#1000, nband= 24, wtk=  1.00000, kpt=  0.1633  0.2789  0.2789 (reduced coord)
 -39.53269  -15.91885  -15.91885  -15.55959   12.82990   13.67896   13.67896   18.60557
  18.60557   24.21867   25.92934   25.92934   27.89036   37.43095   37.43095   41.10494
  41.10494   41.14437   42.75747   52.32215   54.98626   54.98626   56.09516   57.68670
 kpt#1001, nband= 24, wtk=  1.00000, kpt=  0.1590  0.2803  0.2803 (reduced coord)
 -39.53269  -15.92395  -15.92395  -15.54806   12.80075   13.68895   13.68895   18.59956
  18.59956   24.23301   25.90650   25.90650   27.96916   37.35725   37.35725   41.12897
  41.12897   41.26819   42.81835   52.30826   54.91938   54.91938   56.02577   57.63283
 kpt#1002, nband= 24, wtk=  1.00000, kpt=  0.1546  0.2818  0.2818 (reduced coord)
 -39.53268  -15.92898  -15.92898  -15.53666   12.77207   13.69858   13.69858   18.59328
  18.59328   24.24753   25.88434   25.88434   28.04898   37.28342   37.28342   41.15531
  41.15531   41.39251   42.87717   52.28971   54.85273   54.85273   55.96415   57.57925
 kpt#1003, nband= 24, wtk=  1.00000, kpt=  0.1503  0.2832  0.2832 (reduced coord)
 -39.53266  -15.93395  -15.93395  -15.52541   12.74390   13.70783   13.70783   18.58672
  18.58672   24.26220   25.86289   25.86289   28.12984   37.20953   37.20953   41.18389
  41.18389   41.51731   42.93386   52.26601   54.78641   54.78641   55.91075   57.52595
 kpt#1004, nband= 24, wtk=  1.00000, kpt=  0.1460  0.2847  0.2847 (reduced coord)
 -39.53263  -15.93885  -15.93885  -15.51432   12.71629   13.71668   13.71668   18.57988
  18.57988   24.27699   25.84216   25.84216   28.21173   37.13562   37.13562   41.21465
  41.21465   41.64259   42.98837   52.23674   54.72050   54.72050   55.86594   57.47293
 kpt#1005, nband= 24, wtk=  1.00000, kpt=  0.1416  0.2861  0.2861 (reduced coord)
 -39.53258  -15.94368  -15.94368  -15.50339   12.68927   13.72511   13.72511   18.57279
  18.57279   24.29186   25.82217   25.82217   28.29467   37.06173   37.06173   41.24752
  41.24752   41.76835   43.04065   52.20154   54.65506   54.65506   55.83005   57.42019
 kpt#1006, nband= 24, wtk=  1.00000, kpt=  0.1373  0.2876  0.2876 (reduced coord)
 -39.53252  -15.94844  -15.94844  -15.49263   12.66290   13.73311   13.73311   18.56543
  18.56543   24.30680   25.80296   25.80296   28.37866   36.98791   36.98791   41.28244
  41.28244   41.89458   43.09065   52.16015   54.59017   54.59017   55.80328   57.36772
 kpt#1007, nband= 24, wtk=  1.00000, kpt=  0.1329  0.2890  0.2890 (reduced coord)
 -39.53245  -15.95314  -15.95314  -15.48206   12.63721   13.74066   13.74066   18.55783
  18.55783   24.32178   25.78452   25.78452   28.46371   36.91419   36.91419   41.31935
  41.31935   42.02127   43.13834   52.11238   54.52589   54.52589   55.78573   57.31552
 kpt#1008, nband= 24, wtk=  1.00000, kpt=  0.1286  0.2905  0.2905 (reduced coord)
 -39.53237  -15.95776  -15.95776  -15.47167   12.61224   13.74773   13.74773   18.55000
  18.55000   24.33678   25.76688   25.76688   28.54982   36.84061   36.84061   41.35820
  41.35820   42.14842   43.18367   52.05819   54.46227   54.46227   55.77738   57.26359
 kpt#1009, nband= 24, wtk=  1.00000, kpt=  0.1243  0.2919  0.2919 (reduced coord)
 -39.53227  -15.96231  -15.96231  -15.46073   12.58819   13.75431   13.75431   18.54194
  18.54194   24.35190   25.75006   25.75006   28.63700   36.76722   36.76722   41.39894
  41.39894   42.27601   43.22684   51.99877   54.39938   54.39938   55.77842   57.21193
 kpt#1010, nband= 24, wtk=  1.00000, kpt=  0.1199  0.2934  0.2934 (reduced coord)
 -39.53215  -15.96679  -15.96679  -15.45076   12.56477   13.76039   13.76039   18.53366
  18.53366   24.36688   25.73406   25.73406   28.72522   36.69402   36.69402   41.44151
  41.44151   42.40405   43.26740   51.93191   54.33724   54.33724   55.78793   57.16050
 kpt#1011, nband= 24, wtk=  1.00000, kpt=  0.1156  0.2948  0.2948 (reduced coord)
 -39.53202  -15.97120  -15.97120  -15.44100   12.54219   13.76593   13.76593   18.52518
  18.52518   24.38183   25.71890   25.71890   28.81450   36.62105   36.62105   41.48586
  41.48586   42.53253   43.30553   51.85898   54.27592   54.27592   55.80593   57.10930
 kpt#1012, nband= 24, wtk=  1.00000, kpt=  0.1113  0.2962  0.2962 (reduced coord)
 -39.53187  -15.97554  -15.97554  -15.43146   12.52048   13.77093   13.77093   18.51651
  18.51651   24.39674   25.70459   25.70459   28.90482   36.54835   36.54835   41.53195
  41.53195   42.66144   43.34123   51.78023   54.21544   54.21544   55.83201   57.05834
 kpt#1013, nband= 24, wtk=  1.00000, kpt=  0.1069  0.2977  0.2977 (reduced coord)
 -39.53170  -15.97980  -15.97980  -15.42215   12.49967   13.77536   13.77536   18.50766
  18.50766   24.41159   25.69114   25.69114   28.99619   36.47593   36.47593   41.57973
  41.57973   42.79076   43.37450   51.69599   54.15587   54.15587   55.86570   57.00760
 kpt#1014, nband= 24, wtk=  1.00000, kpt=  0.1026  0.2991  0.2991 (reduced coord)
 -39.53151  -15.98389  -15.98389  -15.41250   12.47988   13.77922   13.77922   18.49870
  18.49870   24.42642   25.67863   25.67863   29.08861   36.40399   36.40399   41.62917
  41.62917   42.92050   43.40537   51.60702   54.09726   54.09726   55.90681   56.95723
 kpt#1015, nband= 24, wtk=  1.00000, kpt=  0.0983  0.3006  0.3006 (reduced coord)
 -39.53130  -15.98800  -15.98800  -15.40368   12.46097   13.78246   13.78246   18.48955
  18.48955   24.44112   25.66691   25.66691   29.18203   36.33224   36.33224   41.68019
  41.68019   43.05065   43.43376   51.51285   54.03957   54.03957   55.95404   56.90692
 kpt#1016, nband= 24, wtk=  1.00000, kpt=  0.0939  0.3020  0.3020 (reduced coord)
 -39.53107  -15.99205  -15.99205  -15.39510   12.44307   13.78509   13.78509   18.48029
  18.48029   24.45574   25.65607   25.65607   29.27646   36.26086   36.26086   41.73278
  41.73278   43.18119   43.45972   51.41426   53.98288   53.98288   56.00719   56.85682
 kpt#1017, nband= 24, wtk=  1.00000, kpt=  0.0896  0.3035  0.3035 (reduced coord)
 -39.53082  -15.99614  -15.99614  -15.38692   12.42618   13.78703   13.78703   18.47088
  18.47088   24.47026   25.64611   25.64611   29.37186   36.18986   36.18986   41.78686
  41.78686   43.31212   43.48326   51.31159   53.92720   53.92720   56.06559   56.80668
 kpt#1018, nband= 24, wtk=  1.00000, kpt=  0.0853  0.3049  0.3049 (reduced coord)
 -39.53055  -16.00003  -16.00003  -15.37886   12.41037   13.78837   13.78837   18.46143
  18.46143   24.48468   25.63702   25.63702   29.46827   36.11928   36.11928   41.84244
  41.84244   43.44343   43.50441   51.20520   53.87257   53.87257   56.12908   56.75698
 kpt#1019, nband= 24, wtk=  1.00000, kpt=  0.0809  0.3064  0.3064 (reduced coord)
 -39.53026  -16.00384  -16.00384  -15.37107   12.39564   13.78903   13.78903   18.45190
  18.45190   24.49900   25.62881   25.62881   29.56566   36.04914   36.04914   41.89946
  41.89946   43.52318   43.57511   51.09539   53.81901   53.81901   56.19726   56.70749
 kpt#1020, nband= 24, wtk=  1.00000, kpt=  0.0766  0.3078  0.3078 (reduced coord)
 -39.52995  -16.00758  -16.00758  -15.36356   12.38202   13.78901   13.78901   18.44234
  18.44234   24.51321   25.62147   25.62147   29.66399   35.97946   35.97946   41.95788
  41.95788   43.53959   43.70714   50.98247   53.76655   53.76655   56.27026   56.65819
 kpt#1021, nband= 24, wtk=  1.00000, kpt=  0.0723  0.3092  0.3092 (reduced coord)
 -39.52961  -16.01096  -16.01096  -15.35574   12.36958   13.78834   13.78834   18.43281
  18.43281   24.52735   25.61513   25.61513   29.76333   35.91053   35.91053   42.01776
  42.01776   43.55367   43.83955   50.86689   53.71537   53.71537   56.35127   56.60933
 kpt#1022, nband= 24, wtk=  1.00000, kpt=  0.0679  0.3107  0.3107 (reduced coord)
 -39.52925  -16.01454  -16.01454  -15.34880   12.35826   13.78690   13.78690   18.42323
  18.42323   24.54135   25.60951   25.60951   29.86352   35.84183   35.84183   42.07887
  42.07887   43.56546   43.97227   50.74855   53.66514   53.66514   56.43484   56.56043
 kpt#1023, nband= 24, wtk=  1.00000, kpt=  0.0636  0.3121  0.3121 (reduced coord)
 -39.52886  -16.01805  -16.01805  -15.34216   12.34813   13.78472   13.78472   18.41367
  18.41367   24.55523   25.60474   25.60474   29.96461   35.77367   35.77367   42.14126
  42.14126   43.57497   44.10533   50.62784   53.61606   53.61606   56.49953   56.51172
 kpt#1024, nband= 24, wtk=  1.00000, kpt=  0.0592  0.3136  0.3136 (reduced coord)
 -39.52845  -16.02148  -16.02148  -15.33581   12.33920   13.78179   13.78179   18.40416
  18.40416   24.56900   25.60081   25.60081   30.06658   35.70605   35.70605   42.20491
  42.20491   43.58226   44.23870   50.50496   53.56814   53.56814   56.46322   56.49655
 kpt#1025, nband= 24, wtk=  1.00000, kpt=  0.0549  0.3150  0.3150 (reduced coord)
 -39.52802  -16.02483  -16.02483  -15.32976   12.33151   13.77810   13.77810   18.39473
  18.39473   24.58265   25.59769   25.59769   30.16940   35.63899   35.63899   42.26978
  42.26978   43.58736   44.37237   50.38010   53.52139   53.52139   56.41492   56.43773
 kpt#1026, nband= 24, wtk=  1.00000, kpt=  0.0506  0.3165  0.3165 (reduced coord)
 -39.52756  -16.02810  -16.02810  -15.32402   12.32507   13.77364   13.77364   18.38540
  18.38540   24.59620   25.59538   25.59538   30.27307   35.57253   35.57253   42.33583
  42.33583   43.59031   44.50634   50.25340   53.47582   53.47582   56.36684   56.37873
 kpt#1027, nband= 24, wtk=  1.00000, kpt=  0.0462  0.3179  0.3179 (reduced coord)
 -39.52708  -16.03129  -16.03129  -15.31859   12.31990   13.76839   13.76839   18.37619
  18.37619   24.60963   25.59386   25.59386   30.37754   35.50669   35.50669   42.40303
  42.40303   43.59115   44.64058   50.12501   53.43143   53.43143   56.31899   56.32545
 kpt#1028, nband= 24, wtk=  1.00000, kpt=  0.0419  0.3194  0.3194 (reduced coord)
 -39.52657  -16.03471  -16.03471  -15.31363   12.31601   13.76224   13.76224   18.36707
  18.36707   24.62295   25.59307   25.59307   30.48279   35.44146   35.44146   42.47133
  42.47133   43.58989   44.77507   49.99500   53.38812   53.38812   56.27104   56.29963
 kpt#1029, nband= 24, wtk=  1.00000, kpt=  0.0376  0.3208  0.3208 (reduced coord)
 -39.52603  -16.03774  -16.03774  -15.30884   12.31344   13.75538   13.75538   18.35820
  18.35820   24.63617   25.59306   25.59306   30.58881   35.37691   35.37691   42.54073
  42.54073   43.58665   44.90984   49.86359   53.34611   53.34611   56.22366   56.24768
 kpt#1030, nband= 24, wtk=  1.00000, kpt=  0.0332  0.3223  0.3223 (reduced coord)
 -39.52547  -16.04070  -16.04070  -15.30437   12.31220   13.74770   13.74770   18.34953
  18.34953   24.64928   25.59377   25.59377   30.69556   35.31305   35.31305   42.61117
  42.61117   43.58145   45.04484   49.73082   53.30530   53.30530   56.17656   56.18888
 kpt#1031, nband= 24, wtk=  1.00000, kpt=  0.0289  0.3237  0.3237 (reduced coord)
 -39.52488  -16.04358  -16.04358  -15.30022   12.31230   13.73919   13.73919   18.34109
  18.34109   24.66228   25.59518   25.59518   30.80302   35.24989   35.24989   42.68263
  42.68263   43.57432   45.18007   49.59678   53.26567   53.26567   56.12973   56.13607
 kpt#1032, nband= 24, wtk=  1.00000, kpt=  0.0246  0.3251  0.3251 (reduced coord)
 -39.52427  -16.04637  -16.04637  -15.29641   12.31376   13.72985   13.72985   18.33290
  18.33290   24.67518   25.59726   25.59726   30.91116   35.18747   35.18747   42.75506
  42.75506   43.56532   45.31550   49.46154   53.22723   53.22723   56.08320   56.08649
 kpt#1033, nband= 24, wtk=  1.00000, kpt=  0.0202  0.3266  0.3266 (reduced coord)
 -39.52362  -16.04914  -16.04914  -15.29322   12.31658   13.71966   13.71966   18.32496
  18.32496   24.68798   25.59996   25.59996   31.01972   35.12580   35.12580   42.82845
  42.82845   43.55437   45.45113   49.32517   53.18982   53.18982   56.03698   56.03707
 kpt#1034, nband= 24, wtk=  1.00000, kpt=  0.0159  0.3280  0.3280 (reduced coord)
 -39.52295  -16.05178  -16.05178  -15.28994   12.32081   13.70863   13.70863   18.31737
  18.31737   24.70072   25.60328   25.60328   31.12913   35.06491   35.06491   42.90275
  42.90275   43.54183   45.58693   49.18796   53.15373   53.15373   55.99112   55.99119
 kpt#1035, nband= 24, wtk=  1.00000, kpt=  0.0116  0.3295  0.3295 (reduced coord)
 -39.52225  -16.05434  -16.05434  -15.28713   12.32642   13.69674   13.69674   18.31011
  18.31011   24.71333   25.60717   25.60717   31.23912   35.00483   35.00483   42.97794
  42.97794   43.52755   45.72290   49.04949   53.11878   53.11878   55.94565   55.94568
 kpt#1036, nband= 24, wtk=  1.00000, kpt=  0.0072  0.3309  0.3309 (reduced coord)
 -39.52153  -16.05682  -16.05682  -15.28466   12.33344   13.68400   13.68400   18.30321
  18.30321   24.72584   25.61161   25.61161   31.34966   34.94558   34.94558   43.05398
  43.05398   43.51162   45.85900   48.91004   53.08498   53.08498   55.90058   55.90059
 kpt#1037, nband= 24, wtk=  1.00000, kpt=  0.0029  0.3324  0.3324 (reduced coord)
 -39.52077  -16.05922  -16.05922  -15.28253   12.34189   13.67040   13.67040   18.29669
  18.29669   24.73827   25.61654   25.61654   31.46072   34.88719   34.88719   43.13083
  43.13083   43.49410   45.99522   48.76965   53.05228   53.05228   55.85595   55.85596
 kpt#1038, nband= 24, wtk=  1.00000, kpt= -0.0014  0.3338  0.3338 (reduced coord)
 -39.51999  -16.06154  -16.06154  -15.28073   12.35177   13.65594   13.65594   18.29057
  18.29057   24.75061   25.62194   25.62194   31.57226   34.82969   34.82969   43.20848
  43.20848   43.47504   46.13155   48.62836   53.02069   53.02069   55.81182   55.81182
 kpt#1039, nband= 24, wtk=  1.00000, kpt= -0.0058  0.3353  0.3353 (reduced coord)
 -39.51918  -16.06378  -16.06378  -15.27928   12.36308   13.64063   13.64063   18.28488
  18.28488   24.76286   25.62777   25.62777   31.68425   34.77311   34.77311   43.28688
  43.28688   43.45450   46.26796   48.48619   52.99016   52.99016   55.76820   55.76820
 kpt#1040, nband= 24, wtk=  1.00000, kpt= -0.0101  0.3367  0.3367 (reduced coord)
 -39.51835  -16.06595  -16.06595  -15.27817   12.37585   13.62446   13.62446   18.27964
  18.27964   24.77502   25.63398   25.63398   31.79664   34.71746   34.71746   43.36601
  43.36601   43.43254   46.40443   48.34319   52.96066   52.96066   55.72516   55.72517
 kpt#1041, nband= 24, wtk=  1.00000, kpt= -0.0145  0.3382  0.3382 (reduced coord)
 -39.51748  -16.06804  -16.06804  -15.27740   12.39008   13.60744   13.60744   18.27486
  18.27486   24.78710   25.64053   25.64053   31.90941   34.66280   34.66280   43.40922
  43.44583   43.44583   46.54094   48.19938   52.93216   52.93216   55.68275   55.68276
 kpt#1042, nband= 24, wtk=  1.00000, kpt= -0.0188  0.3396  0.3396 (reduced coord)
 -39.51659  -16.07005  -16.07005  -15.27697   12.40578   13.58957   13.58957   18.27058
  18.27058   24.79910   25.64738   25.64738   32.02249   34.60913   34.60913   43.38461
  43.52632   43.52632   46.67747   48.05479   52.90463   52.90463   55.64102   55.64102
 kpt#1043, nband= 24, wtk=  1.00000, kpt= -0.0231  0.3410  0.3410 (reduced coord)
 -39.51567  -16.07194  -16.07194  -15.27659   12.42296   13.57087   13.57087   18.26681
  18.26681   24.81108   25.65450   25.65450   32.13590   34.55657   34.55657   43.35881
  43.60745   43.60745   46.81399   47.90978   52.87802   52.87802   55.60012   55.60013
 kpt#1044, nband= 24, wtk=  1.00000, kpt= -0.0275  0.3425  0.3425 (reduced coord)
 -39.51472  -16.07398  -16.07398  -15.27726   12.44161   13.55131   13.55131   18.26344
  18.26344   24.82292   25.66174   25.66174   32.24932   34.50499   34.50499   43.33176
  43.68916   43.68916   46.95047   47.76368   52.85205   52.85205   55.55971   55.55973
 kpt#1045, nband= 24, wtk=  1.00000, kpt= -0.0318  0.3439  0.3439 (reduced coord)
 -39.51374  -16.07576  -16.07576  -15.27786   12.46175   13.53094   13.53094   18.26073
  18.26073   24.83468   25.66921   25.66921   32.36312   34.45450   34.45450   43.30364
  43.77145   43.77145   47.08691   47.61689   52.82712   52.82712   55.52040   55.52041
 kpt#1046, nband= 24, wtk=  1.00000, kpt= -0.0361  0.3454  0.3454 (reduced coord)
 -39.51274  -16.07747  -16.07747  -15.27880   12.48337   13.50976   13.50976   18.25857
  18.25857   24.84636   25.67678   25.67678   32.47705   34.40514   34.40514   43.27448
  43.85429   43.85429   47.22327   47.46943   52.80294   52.80294   55.48205   55.48206
 kpt#1047, nband= 24, wtk=  1.00000, kpt= -0.0405  0.3468  0.3468 (reduced coord)
 -39.51170  -16.07910  -16.07910  -15.28007   12.50649   13.48778   13.48778   18.25697
  18.25697   24.85797   25.68442   25.68442   32.59107   34.35694   34.35694   43.24434
  43.93764   43.93764   47.32133   47.35952   52.77946   52.77946   55.44473   55.44474
 kpt#1048, nband= 24, wtk=  1.00000, kpt= -0.0448  0.3483  0.3483 (reduced coord)
 -39.51065  -16.08036  -16.08036  -15.28152   12.53111   13.46511   13.46511   18.25597
  18.25597   24.86950   25.69214   25.69214   32.70518   34.31007   34.31007   43.21333
  44.02163   44.02163   47.17261   47.49569   52.75693   52.75693   55.40863   55.40863
 kpt#1049, nband= 24, wtk=  1.00000, kpt= -0.0491  0.3497  0.3497 (reduced coord)
 -39.50956  -16.08184  -16.08184  -15.28346   12.55723   13.44156   13.44156   18.25555
  18.25555   24.88094   25.69975   25.69975   32.81921   34.26427   34.26427   43.18145
  44.10592   44.10592   47.02332   47.63164   52.73462   52.73462   55.37364   55.37365
 kpt#1050, nband= 24, wtk=  1.00000, kpt= -0.0535  0.3512  0.3512 (reduced coord)
 -39.50845  -16.08325  -16.08325  -15.28611   12.58483   13.41725   13.41725   18.25573
  18.25573   24.89230   25.70728   25.70728   32.93271   34.21972   34.21972   43.14860
  44.19064   44.19064   46.87345   47.76740   52.71278   52.71278   55.33997   55.33998
 kpt#1051, nband= 24, wtk=  1.00000, kpt= -0.0578  0.3526  0.3526 (reduced coord)
 -39.50731  -16.08459  -16.08459  -15.28872   12.61395   13.39220   13.39220   18.25653
  18.25653   24.90358   25.71467   25.71467   33.04650   34.17645   34.17645   43.11523
  44.27575   44.27575   46.72312   47.90293   52.69133   52.69133   55.30772   55.30773
 kpt#1052, nband= 24, wtk=  1.00000, kpt= -0.0621  0.3540  0.3540 (reduced coord)
 -39.50614  -16.08585  -16.08585  -15.29164   12.64457   13.36642   13.36642   18.25795
  18.25795   24.91478   25.72188   25.72188   33.16007   34.13449   34.13449   43.08122
  44.36123   44.36123   46.57234   48.03820   52.67019   52.67019   55.27699   55.27699
 kpt#1053, nband= 24, wtk=  1.00000, kpt= -0.0665  0.3555  0.3555 (reduced coord)
 -39.50495  -16.08705  -16.08705  -15.29489   12.67670   13.33993   13.33993   18.26000
  18.26000   24.92590   25.72884   25.72884   33.27336   34.09388   34.09388   43.04662
  44.44705   44.44705   46.42116   48.17318   52.64925   52.64925   55.24790   55.24790
 kpt#1054, nband= 24, wtk=  1.00000, kpt= -0.0708  0.3569  0.3569 (reduced coord)
 -39.50373  -16.08817  -16.08817  -15.29845   12.71033   13.31275   13.31275   18.26268
  18.26268   24.93693   25.73551   25.73551   33.38630   34.05465   34.05465   43.01152
  44.53318   44.53318   46.26965   48.30784   52.62842   52.62842   55.22056   55.22056
 kpt#1055, nband= 24, wtk=  1.00000, kpt= -0.0751  0.3584  0.3584 (reduced coord)
 -39.50249  -16.08922  -16.08922  -15.30233   12.74547   13.28490   13.28490   18.26600
  18.26600   24.94786   25.74184   25.74184   33.49880   34.01681   34.01681   42.97596
  44.61960   44.61960   46.11787   48.44214   52.60760   52.60760   55.19509   55.19509
 kpt#1056, nband= 24, wtk=  1.00000, kpt= -0.0795  0.3598  0.3598 (reduced coord)
 -39.50122  -16.09020  -16.09020  -15.30652   12.78210   13.25640   13.25640   18.26996
  18.26996   24.95870   25.74778   25.74778   33.61078   33.98042   33.98042   42.94000
  44.70627   44.70627   45.96589   48.57604   52.58669   52.58669   55.17161   55.17161
 kpt#1057, nband= 24, wtk=  1.00000, kpt= -0.0838  0.3613  0.3613 (reduced coord)
 -39.49993  -16.09112  -16.09112  -15.31100   12.82023   13.22728   13.22728   18.27456
  18.27456   24.96945   25.75328   25.75328   33.72215   33.94549   33.94549   42.90371
  44.79318   44.79318   45.81380   48.70950   52.56558   52.56558   55.15025   55.15025
 kpt#1058, nband= 24, wtk=  1.00000, kpt= -0.0882  0.3627  0.3627 (reduced coord)
 -39.49861  -16.09196  -16.09196  -15.31579   12.85986   13.19756   13.19756   18.27981
  18.27981   24.98009   25.75828   25.75828   33.83284   33.91206   33.91206   42.86712
  44.88030   44.88030   45.66171   48.84250   52.54418   52.54418   55.13113   55.13113
 kpt#1059, nband= 24, wtk=  1.00000, kpt= -0.0925  0.3642  0.3642 (reduced coord)
 -39.49727  -16.09274  -16.09274  -15.32087   12.90097   13.16725   13.16725   18.28571
  18.28571   24.99062   25.76275   25.76275   33.88014   33.88014   33.94273   42.83027
  44.96760   44.96760   45.50972   48.97498   52.52237   52.52237   55.11437   55.11437
 kpt#1060, nband= 24, wtk=  1.00000, kpt= -0.0968  0.3656  0.3656 (reduced coord)
 -39.49591  -16.09372  -16.09372  -15.32650   12.94358   13.13635   13.13635   18.29210
  18.29210   25.00104   25.76659   25.76659   33.84974   33.84974   34.05169   42.79315
  45.05505   45.05505   45.35787   49.10689   52.49992   52.49992   55.09981   55.10020
 kpt#1061, nband= 24, wtk=  1.00000, kpt= -0.1012  0.3671  0.3671 (reduced coord)
 -39.49452  -16.09437  -16.09437  -15.33216   12.98766   13.10496   13.10496   18.29929
  18.29929   25.01135   25.76983   25.76983   33.82095   33.82095   34.15969   42.75587
  45.14264   45.14264   45.20650   49.23822   52.47700   52.47700   55.08814   55.08869
 kpt#1062, nband= 24, wtk=  1.00000, kpt= -0.1055  0.3685  0.3685 (reduced coord)
 -39.49311  -16.09507  -16.09507  -15.33867   13.03321   13.07306   13.07306   18.30703
  18.30703   25.02152   25.77232   25.77232   33.79374   33.79374   34.26612   42.71830
  45.05570   45.23032   45.23032   49.36892   52.45320   52.45320   55.07905   55.07935
 kpt#1063, nband= 24, wtk=  1.00000, kpt= -0.1098  0.3699  0.3699 (reduced coord)
 -39.49168  -16.09559  -16.09559  -15.34488   13.04068   13.04068   13.08024   18.31549
  18.31549   25.03157   25.77416   25.77416   33.76816   33.76816   34.37177   42.68056
  44.90568   45.31811   45.31811   49.49893   52.42880   52.42880   55.07290   55.07313
 kpt#1064, nband= 24, wtk=  1.00000, kpt= -0.1142  0.3714  0.3714 (reduced coord)
 -39.49023  -16.09605  -16.09605  -15.35136   13.00784   13.00784   13.12874   18.32459
  18.32459   25.04147   25.77523   25.77523   33.74422   33.74422   34.47608   42.64250
  44.75669   45.40596   45.40596   49.62822   52.40354   52.40354   55.06966   55.07007
 kpt#1065, nband= 24, wtk=  1.00000, kpt= -0.1185  0.3728  0.3728 (reduced coord)
 -39.48876  -16.09645  -16.09645  -15.35810   12.97458   12.97458   13.17870   18.33433
  18.33433   25.05123   25.77549   25.77549   33.72194   33.72194   34.57890   42.60402
  44.60903   45.49385   45.49385   49.75674   52.37735   52.37735   55.06943   55.07011
 kpt#1066, nband= 24, wtk=  1.00000, kpt= -0.1228  0.3743  0.3743 (reduced coord)
 -39.48726  -16.09680  -16.09680  -15.36509   12.94091   12.94091   13.23011   18.34469
  18.34469   25.06083   25.77492   25.77492   33.70134   33.70134   34.68010   42.56497
  44.46307   45.58177   45.58177   49.88443   52.35017   52.35017   55.07227   55.07339
 kpt#1067, nband= 24, wtk=  1.00000, kpt= -0.1272  0.3757  0.3757 (reduced coord)
 -39.48575  -16.09708  -16.09708  -15.37233   12.90686   12.90686   13.28296   18.35567
  18.35567   25.07026   25.77346   25.77346   33.68242   33.68242   34.77954   42.52511
  44.31924   45.66969   45.66969   50.01127   52.32195   52.32195   55.07826   55.08150
 kpt#1068, nband= 24, wtk=  1.00000, kpt= -0.1315  0.3772  0.3772 (reduced coord)
 -39.48422  -16.09730  -16.09730  -15.37980   12.87246   12.87246   13.33725   18.36727
  18.36727   25.07952   25.77109   25.77109   33.66521   33.66521   34.87706   42.48413
  44.17809   45.75759   45.75759   50.13719   52.29264   52.29264   55.08744   55.09223
 kpt#1069, nband= 24, wtk=  1.00000, kpt= -0.1358  0.3786  0.3786 (reduced coord)
 -39.48268  -16.09747  -16.09747  -15.38751   12.83773   12.83773   13.39296   18.37948
  18.37948   25.08860   25.76777   25.76777   33.64971   33.64971   34.97252   42.44158
  44.04027   45.84546   45.84546   50.26215   52.26223   52.26223   55.09986   55.10638
 kpt#1070, nband= 24, wtk=  1.00000, kpt= -0.1402  0.3801  0.3801 (reduced coord)
 -39.48111  -16.09758  -16.09758  -15.39545   12.80271   12.80271   13.45009   18.39230
  18.39230   25.09747   25.76348   25.76348   33.63593   33.63593   35.06574   42.39691
  43.90659   45.93327   45.93327   50.38609   52.23069   52.23069   55.11555   55.12304
 kpt#1071, nband= 24, wtk=  1.00000, kpt= -0.1445  0.3815  0.3815 (reduced coord)
 -39.47953  -16.09764  -16.09764  -15.40360   12.76741   12.76741   13.50863   18.40571
  18.40571   25.10614   25.75819   25.75819   33.62387   33.62387   35.15656   42.34938
  43.77800   46.02101   46.02101   50.50898   52.19802   52.19802   55.13453   55.14082
 kpt#1072, nband= 24, wtk=  1.00000, kpt= -0.1488  0.3829  0.3829 (reduced coord)
 -39.47793  -16.09764  -16.09764  -15.41196   12.73186   12.73186   13.56856   18.41971
  18.41971   25.11458   25.75188   25.75188   33.61354   33.61354   35.24481   42.29812
  43.65564   46.10867   46.10867   50.63077   52.16422   52.16422   55.15679   55.16415
 kpt#1073, nband= 24, wtk=  1.00000, kpt= -0.1532  0.3844  0.3844 (reduced coord)
 -39.47632  -16.09760  -16.09760  -15.42052   12.69610   12.69610   13.62988   18.43429
  18.43429   25.12279   25.74453   25.74453   33.60494   33.60494   35.33030   42.24209
  43.54079   46.19622   46.19622   50.75139   52.12933   52.12933   55.18234   55.20239
 kpt#1074, nband= 24, wtk=  1.00000, kpt= -0.1575  0.3858  0.3858 (reduced coord)
 -39.47469  -16.09702  -16.09702  -15.42872   12.66024   12.66024   13.69258   18.44946
  18.44946   25.13082   25.73633   25.73633   33.59848   33.59848   35.41298   42.18031
  43.43487   46.28389   46.28389   50.87093   52.09378   52.09378   55.21129   55.29211
 kpt#1075, nband= 24, wtk=  1.00000, kpt= -0.1618  0.3873  0.3873 (reduced coord)
 -39.47305  -16.09688  -16.09688  -15.43767   12.62410   12.62410   13.75663   18.46518
  18.46518   25.13852   25.72684   25.72684   33.59331   33.59331   35.49243   42.11142
  43.33912   46.37119   46.37119   50.98910   52.05677   52.05677   55.24334   55.24521
 kpt#1076, nband= 24, wtk=  1.00000, kpt= -0.1662  0.3887  0.3887 (reduced coord)
 -39.47140  -16.09670  -16.09670  -15.44718   12.58783   12.58783   13.82199   18.48145
  18.48145   25.14593   25.71625   25.71625   33.58985   33.58985   35.56811   42.03461
  43.25471   46.45833   46.45833   51.10596   52.01876   52.01876   55.20597   55.27857
 kpt#1077, nband= 24, wtk=  1.00000, kpt= -0.1705  0.3902  0.3902 (reduced coord)
 -39.46973  -16.09646  -16.09646  -15.45648   12.55143   12.55143   13.88872   18.49827
  18.49827   25.15306   25.70456   25.70456   33.58809   33.58809   35.64076   41.94947
  43.18250   46.54531   46.54531   51.22147   51.97980   51.97980   55.15879   55.31698
 kpt#1078, nband= 24, wtk=  1.00000, kpt= -0.1749  0.3916  0.3916 (reduced coord)
 -39.46806  -16.09617  -16.09617  -15.46594   12.51495   12.51495   13.95678   18.51562
  18.51562   25.15987   25.69177   25.69177   33.58800   33.58800   35.70973   41.85588
  43.12277   46.63210   46.63210   51.33558   51.93996   51.93996   55.10938   55.35849
 kpt#1079, nband= 24, wtk=  1.00000, kpt= -0.1792  0.3931  0.3931 (reduced coord)
 -39.46637  -16.09584  -16.09584  -15.47556   12.47839   12.47839   14.02614   18.53351
  18.53351   25.16635   25.67787   25.67787   33.58958   33.58958   35.77485   41.75428
  43.07533   46.71871   46.71871   51.44826   51.89930   51.89930   55.06212   55.40304
 kpt#1080, nband= 24, wtk=  1.00000, kpt= -0.1835  0.3945  0.3945 (reduced coord)
 -39.46467  -16.09547  -16.09547  -15.48532   12.44179   12.44179   14.09680   18.55191
  18.55191   25.17248   25.66287   25.66287   33.59280   33.59280   35.83593   41.64548
  43.03962   46.80510   46.80510   51.55944   51.85788   51.85788   55.01713   55.45058
 kpt#1081, nband= 24, wtk=  1.00000, kpt= -0.1879  0.3960  0.3960 (reduced coord)
 -39.46297  -16.09506  -16.09506  -15.49522   12.40516   12.40516   14.16874   18.57082
  18.57082   25.17825   25.64675   25.64675   33.59764   33.59764   35.89281   41.53053
  43.01485   46.89126   46.89126   51.66909   51.81578   51.81578   54.97550   55.50102
 kpt#1082, nband= 24, wtk=  1.00000, kpt= -0.1922  0.3974  0.3974 (reduced coord)
 -39.46126  -16.09461  -16.09461  -15.50525   12.36854   12.36854   14.24194   18.59023
  18.59023   25.18362   25.62954   25.62954   33.60407   33.60407   35.94532   41.41054
  43.00014   46.97719   46.97719   51.77309   51.77309   51.77717   54.93607   55.55429
 kpt#1083, nband= 24, wtk=  1.00000, kpt= -0.1965  0.3988  0.3988 (reduced coord)
 -39.45954  -16.09411  -16.09411  -15.51539   12.33194   12.33194   14.31638   18.61013
  18.61013   25.18859   25.61123   25.61123   33.61206   33.61206   35.99330   41.28658
  42.99464   47.06285   47.06285   51.72987   51.72987   51.88365   54.89839   55.61031
 kpt#1084, nband= 24, wtk=  1.00000, kpt= -0.2009  0.4003  0.4003 (reduced coord)
 -39.45781  -16.09358  -16.09358  -15.52565   12.29540   12.29540   14.39206   18.63050
  18.63050   25.19312   25.59184   25.59184   33.62158   33.62158   36.03662   41.15962
  42.99759   47.14823   47.14823   51.68623   51.68623   51.98847   54.86233   55.66899
 kpt#1085, nband= 24, wtk=  1.00000, kpt= -0.2052  0.4017  0.4017 (reduced coord)
 -39.45608  -16.09302  -16.09302  -15.53600   12.25892   12.25892   14.46895   18.65135
  18.65135   25.19720   25.57138   25.57138   33.63260   33.63260   36.07514   41.03054
  43.00833   47.23331   47.23331   51.64223   51.64223   52.09161   54.82782   55.73025
 kpt#1086, nband= 24, wtk=  1.00000, kpt= -0.2095  0.4032  0.4032 (reduced coord)
 -39.45435  -16.09242  -16.09242  -15.54645   12.22253   12.22253   14.54704   18.67264
  18.67264   25.20081   25.54987   25.54987   33.64508   33.64508   36.10876   40.90006
  43.02631   47.31807   47.31807   51.59799   51.59799   52.19303   54.79482   55.79398
 kpt#1087, nband= 24, wtk=  1.00000, kpt= -0.2139  0.4046  0.4046 (reduced coord)
 -39.45261  -16.09178  -16.09178  -15.55699   12.18626   12.18626   14.62630   18.69439
  18.69439   25.20391   25.52732   25.52732   33.65898   33.65898   36.13738   40.76880
  43.05108   47.40247   47.40247   51.55359   51.55359   52.29270   54.76330   55.86010
 kpt#1088, nband= 24, wtk=  1.00000, kpt= -0.2182  0.4061  0.4061 (reduced coord)
 -39.45087  -16.09112  -16.09112  -15.56759   12.15012   12.15012   14.70672   18.71656
  18.71656   25.20648   25.50375   25.50375   33.67427   33.67427   36.16091   40.63732
  43.08224   47.48649   47.48649   51.50913   51.50913   52.39060   54.73322   55.92850
 kpt#1089, nband= 24, wtk=  1.00000, kpt= -0.2225  0.4075  0.4075 (reduced coord)
 -39.44913  -16.09026  -16.09026  -15.57784   12.11418   12.11418   14.78829   18.73916
  18.73916   25.20866   25.47923   25.47923   33.69124   33.69124   36.17939   40.50622
  43.11947   47.57014   47.57014   51.46482   51.46482   52.48671   54.70456   55.99918
 kpt#1090, nband= 24, wtk=  1.00000, kpt= -0.2269  0.4090  0.4090 (reduced coord)
 -39.44739  -16.08954  -16.08954  -15.58857   12.07837   12.07837   14.87096   18.76217
  18.76217   25.21010   25.45370   25.45370   33.70915   33.70915   36.19257   40.37559
  43.16249   47.65329   47.65329   51.42057   51.42057   52.58099   54.67726   56.07181
 kpt#1091, nband= 24, wtk=  1.00000, kpt= -0.2312  0.4104  0.4104 (reduced coord)
 -39.44565  -16.08878  -16.08878  -15.59935   12.04276   12.04276   14.95474   18.78558
  18.78558   25.21093   25.42724   25.42724   33.72831   33.72831   36.20054   40.24594
  43.21103   47.73594   47.73594   51.37658   51.37658   52.67343   54.65130   56.14638
 kpt#1092, nband= 24, wtk=  1.00000, kpt= -0.2355  0.4118  0.4118 (reduced coord)
 -39.44391  -16.08813  -16.08813  -15.61071   12.00736   12.00736   15.03952   18.80927
  18.80927   25.21112   25.39983   25.39983   33.74862   33.74862   36.20294   40.11759
  43.26477   47.81802   47.81802   51.33293   51.33293   52.76401   54.62655   56.22256
 kpt#1093, nband= 24, wtk=  1.00000, kpt= -0.2399  0.4133  0.4133 (reduced coord)
 -39.44218  -16.08733  -16.08733  -15.62157   11.97220   11.97220   15.12543   18.83344
  18.83344   25.21064   25.37157   25.37157   33.77013   33.77013   36.20047   39.99082
  43.32365   47.89950   47.89950   51.28986   51.28986   52.85272   54.60314   56.30064
 kpt#1094, nband= 24, wtk=  1.00000, kpt= -0.2442  0.4147  0.4147 (reduced coord)
 -39.44045  -16.08650  -16.08650  -15.63245   11.93729   11.93729   15.21237   18.85798
  18.85798   25.20947   25.34244   25.34244   33.79274   33.79274   36.19280   39.86589
  43.38738   47.98029   47.98029   51.24745   51.24745   52.93955   54.58096   56.38028
 kpt#1095, nband= 24, wtk=  1.00000, kpt= -0.2486  0.4162  0.4162 (reduced coord)
 -39.43872  -16.08566  -16.08566  -15.64334   11.90265   11.90265   15.30031   18.88286
  18.88286   25.20756   25.31250   25.31250   33.81640   33.81640   36.17999   39.74302
  43.45575   48.06031   48.06031   51.20586   51.20586   53.02449   54.55995   56.46132
 kpt#1096, nband= 24, wtk=  1.00000, kpt= -0.2529  0.4176  0.4176 (reduced coord)
 -39.43700  -16.08479  -16.08479  -15.65424   11.86829   11.86829   15.38924   18.90808
  18.90808   25.20489   25.28177   25.28177   33.84105   33.84105   36.16210   39.62242
  43.52855   48.13946   48.13946   51.16524   51.16524   53.10754   54.54008   56.54360
 kpt#1097, nband= 24, wtk=  1.00000, kpt= -0.2572  0.4191  0.4191 (reduced coord)
 -39.43528  -16.08391  -16.08391  -15.66513   11.83424   11.83424   15.47913   18.93362
  18.93362   25.20143   25.25028   25.25028   33.86665   33.86665   36.13921   39.50428
  43.60557   48.21762   48.21762   51.12578   51.12578   53.18869   54.52130   56.62695
 kpt#1098, nband= 24, wtk=  1.00000, kpt= -0.2616  0.4205  0.4205 (reduced coord)
 -39.43358  -16.08301  -16.08301  -15.67601   11.80052   11.80052   15.56995   18.95947
  18.95947   25.19714   25.21808   25.21808   33.89313   33.89313   36.11143   39.38877
  43.68662   48.29466   48.29466   51.08768   51.08768   53.26796   54.50358   56.71119
 kpt#1099, nband= 24, wtk=  1.00000, kpt= -0.2659  0.4220  0.4220 (reduced coord)
 -39.43188  -16.08202  -16.08202  -15.68624   11.76714   11.76714   15.66167   18.98563
  18.98563   25.18523   25.18523   25.19235   33.92062   33.92062   36.07906   39.27624
  43.77150   48.37045   48.37045   51.05127   51.05127   53.34534   54.48719   56.79620
 kpt#1100, nband= 24, wtk=  1.00000, kpt= -0.2702  0.4234  0.4234 (reduced coord)
 -39.43019  -16.08109  -16.08109  -15.69707   11.73411   11.73411   15.75428   19.01205
  19.01205   25.15170   25.15170   25.18630   33.94871   33.94871   36.04186   39.16639
  43.85998   48.44476   48.44476   51.01657   51.01657   53.42083   54.47146   56.88158
 kpt#1101, nband= 24, wtk=  1.00000, kpt= -0.2746  0.4249  0.4249 (reduced coord)
 -39.42851  -16.08017  -16.08017  -15.70860   11.70144   11.70144   15.84755   19.03873
  19.03873   25.11755   25.11755   25.17931   33.97750   33.97750   35.99968   39.05936
  43.95155   48.51738   48.51738   50.98395   50.98395   53.49445   54.45661   56.96705
 kpt#1102, nband= 24, wtk=  1.00000, kpt= -0.2789  0.4263  0.4263 (reduced coord)
 -39.42684  -16.07922  -16.07922  -15.71935   11.66916   11.66916   15.94182   19.06568
  19.06568   25.08285   25.08285   25.17136   34.00697   34.00697   35.95370   38.95561
  44.04661   48.58812   48.58812   50.95374   50.95374   53.56621   54.44269   57.05256
 kpt#1103, nband= 24, wtk=  1.00000, kpt= -0.2832  0.4277  0.4277 (reduced coord)
 -39.42519  -16.07796  -16.07796  -15.72988   11.63731   11.63731   16.03690   19.09288
  19.09288   25.04782   25.04782   25.16242   34.03717   34.03717   35.90362   38.85504
  44.14473   48.65678   48.65678   50.92658   50.92658   53.63629   54.42964   57.13769
 kpt#1104, nband= 24, wtk=  1.00000, kpt= -0.2876  0.4292  0.4292 (reduced coord)
 -39.42355  -16.07699  -16.07699  -15.74052   11.60584   11.60584   16.13272   19.12028
  19.12028   25.01211   25.01211   25.15243   34.06780   34.06780   35.84963   38.75764
  44.24561   48.72282   48.72282   50.90220   50.90220   53.70437   54.41735   57.22208
 kpt#1105, nband= 24, wtk=  1.00000, kpt= -0.2919  0.4306  0.4306 (reduced coord)
 -39.42192  -16.07602  -16.07602  -15.75108   11.57480   11.57480   16.22925   19.14789
  19.14789   24.97595   24.97595   25.14136   34.09892   34.09892   35.79196   38.66345
  44.34911   48.78603   48.78603   50.88132   50.88132   53.77062   54.40580   57.30534
 kpt#1106, nband= 24, wtk=  1.00000, kpt= -0.2962  0.4321  0.4321 (reduced coord)
 -39.42031  -16.07503  -16.07503  -15.76156   11.54420   11.54420   16.32648   19.17568
  19.17568   24.93938   24.93938   25.12918   34.13048   34.13048   35.73087   38.57246
  44.45502   48.84602   48.84602   50.86437   50.86437   53.83508   54.39496   57.38702
 kpt#1107, nband= 24, wtk=  1.00000, kpt= -0.3006  0.4335  0.4335 (reduced coord)
 -39.41872  -16.07404  -16.07404  -15.77195   11.51406   11.51406   16.42435   19.20363
  19.20363   24.90246   24.90246   25.11586   34.16243   34.16243   35.66662   38.48465
  44.56317   48.90238   48.90238   50.85182   50.85182   53.89776   54.38477   57.46662
 kpt#1108, nband= 24, wtk=  1.00000, kpt= -0.3049  0.4350  0.4350 (reduced coord)
 -39.41714  -16.07305  -16.07305  -15.78225   11.48439   11.48439   16.52285   19.23174
  19.23174   24.86521   24.86521   25.10136   34.19469   34.19469   35.59948   38.39998
  44.67336   48.95471   48.95471   50.84414   50.84414   53.95868   54.37519   57.54356
 kpt#1109, nband= 24, wtk=  1.00000, kpt= -0.3092  0.4364  0.4364 (reduced coord)
 -39.41559  -16.07206  -16.07206  -15.79244   11.45519   11.45519   16.62191   19.25998
  19.25998   24.82768   24.82768   25.08564   34.22722   34.22722   35.52974   38.31838
  44.78541   49.00259   49.00259   50.84177   50.84177   54.01786   54.36618   57.61718
 kpt#1110, nband= 24, wtk=  1.00000, kpt= -0.3136  0.4379  0.4379 (reduced coord)
 -39.41405  -16.07107  -16.07107  -15.80252   11.42649   11.42649   16.72152   19.28832
  19.28832   24.78992   24.78992   25.06868   34.25997   34.25997   35.45770   38.23978
  44.89915   49.04565   49.04565   50.84517   50.84517   54.07533   54.35769   57.68676
 kpt#1111, nband= 24, wtk=  1.00000, kpt= -0.3179  0.4393  0.4393 (reduced coord)
 -39.41253  -16.07007  -16.07007  -15.81248   11.39829   11.39829   16.82161   19.31676
  19.31676   24.75197   24.75197   25.05045   34.29286   34.29286   35.38364   38.16410
  45.01439   49.08356   49.08356   50.85469   50.85469   54.13110   54.34966   57.75150
 kpt#1112, nband= 24, wtk=  1.00000, kpt= -0.3223  0.4408  0.4408 (reduced coord)
 -39.41103  -16.06909  -16.06909  -15.82231   11.37061   11.37061   16.92216   19.34526
  19.34526   24.71387   24.71387   25.03091   34.32586   34.32586   35.30786   38.09125
  45.13096   49.11608   49.11608   50.87062   50.87062   54.18520   54.34206   57.81052
 kpt#1113, nband= 24, wtk=  1.00000, kpt= -0.3266  0.4422  0.4422 (reduced coord)
 -39.40956  -16.06810  -16.06810  -15.83201   11.34346   11.34346   17.02310   19.37380
  19.37380   24.67567   24.67567   25.01003   34.35891   34.35891   35.23067   38.02112
  45.24870   49.14309   49.14309   50.89315   50.89315   54.23766   54.33483   57.86288
 kpt#1114, nband= 24, wtk=  1.00000, kpt= -0.3309  0.4436  0.4436 (reduced coord)
 -39.40811  -16.06712  -16.06712  -15.84156   11.31684   11.31684   17.12440   19.40237
  19.40237   24.63741   24.63741   24.98780   34.39195   34.39195   35.15236   37.95363
  45.36741   49.16458   49.16458   50.92231   50.92231   54.28850   54.32793   57.90761
 kpt#1115, nband= 24, wtk=  1.00000, kpt= -0.3353  0.4451  0.4451 (reduced coord)
 -39.40668  -16.06615  -16.06615  -15.85097   11.29077   11.29077   17.22599   19.43094
  19.43094   24.59914   24.59914   24.96419   34.42493   34.42493   35.07320   37.88867
  45.48695   49.18067   49.18067   50.95805   50.95805   54.32131   54.33774   57.94377
 kpt#1116, nband= 24, wtk=  1.00000, kpt= -0.3396  0.4465  0.4465 (reduced coord)
 -39.40528  -16.06518  -16.06518  -15.86022   11.26526   11.26526   17.32783   19.45948
  19.45948   24.56090   24.56090   24.93918   34.45779   34.45779   34.99349   37.82613
  45.60714   49.19161   49.19161   51.00015   51.00015   54.31492   54.38540   57.97049
 kpt#1117, nband= 24, wtk=  1.00000, kpt= -0.3439  0.4480  0.4480 (reduced coord)
 -39.40390  -16.06422  -16.06422  -15.86931   11.24032   11.24032   17.42986   19.48796
  19.48796   24.52274   24.52274   24.91276   34.49048   34.49048   34.91349   37.76593
  45.72781   49.19773   49.19773   51.04831   51.04831   54.30871   54.43151   57.98702
 kpt#1118, nband= 24, wtk=  1.00000, kpt= -0.3483  0.4494  0.4494 (reduced coord)
 -39.40256  -16.06328  -16.06328  -15.87822   11.21595   11.21595   17.53201   19.51637
  19.51637   24.48471   24.48471   24.88491   34.52296   34.52296   34.83345   37.70797
  45.84880   49.19945   49.19945   51.10217   51.10217   54.30265   54.47610   57.99283
 kpt#1119, nband= 24, wtk=  1.00000, kpt= -0.3526  0.4509  0.4509 (reduced coord)
 -39.40123  -16.06234  -16.06234  -15.88697   11.19217   11.19217   17.63422   19.54466
  19.54466   24.44684   24.44684   24.85563   34.55517   34.55517   34.75363   37.65216
  45.96994   49.19721   49.19721   51.16131   51.16131   54.29668   54.51918   57.98763
 kpt#1120, nband= 24, wtk=  1.00000, kpt= -0.3569  0.4523  0.4523 (reduced coord)
 -39.39994  -16.06142  -16.06142  -15.89553   11.16899   11.16899   17.73643   19.57281
  19.57281   24.40920   24.40920   24.82492   34.58705   34.58705   34.67426   37.59843
  46.09106   49.19150   49.19150   51.22530   51.22530   54.29076   54.56078   57.97139
 kpt#1121, nband= 24, wtk=  1.00000, kpt= -0.3613  0.4538  0.4538 (reduced coord)
 -39.39868  -16.06051  -16.06051  -15.90390   11.14641   11.14641   17.83856   19.60080
  19.60080   24.37184   24.37184   24.79278   34.59556   34.61857   34.61857   37.54670
  46.21199   49.18278   49.18278   51.29369   51.29369   54.28484   54.60092   57.94438
 kpt#1122, nband= 24, wtk=  1.00000, kpt= -0.3656  0.4552  0.4552 (reduced coord)
 -39.39744  -16.05961  -16.05961  -15.91208   11.12445   11.12445   17.94053   19.62858
  19.62858   24.33479   24.33479   24.75922   34.51774   34.64967   34.64967   37.49690
  46.33256   49.17150   49.17150   51.36607   51.36607   54.27888   54.63961   57.90708
 kpt#1123, nband= 24, wtk=  1.00000, kpt= -0.3699  0.4566  0.4566 (reduced coord)
 -39.39624  -16.05874  -16.05874  -15.92006   11.10310   11.10310   18.04226   19.65612
  19.65612   24.29811   24.29811   24.72427   34.44100   34.68031   34.68031   37.44898
  46.45259   49.15807   49.15807   51.44206   51.44206   54.27285   54.67689   57.86015
 kpt#1124, nband= 24, wtk=  1.00000, kpt= -0.3743  0.4581  0.4581 (reduced coord)
 -39.39507  -16.05788  -16.05788  -15.92783   11.08238   11.08238   18.14367   19.68339
  19.68339   24.26185   24.26185   24.68794   34.36552   34.71044   34.71044   37.40287
  46.57191   49.14288   49.14288   51.52130   51.52130   54.26670   54.71277   57.80439
 kpt#1125, nband= 24, wtk=  1.00000, kpt= -0.3786  0.4595  0.4595 (reduced coord)
 -39.39393  -16.05703  -16.05703  -15.93539   11.06230   11.06230   18.24465   19.71036
  19.71036   24.22606   24.22606   24.65028   34.29146   34.74001   34.74001   37.35852
  46.69034   49.12627   49.12627   51.60347   51.60347   54.26041   54.74727   57.74063
 kpt#1126, nband= 24, wtk=  1.00000, kpt= -0.3829  0.4610  0.4610 (reduced coord)
 -39.39282  -16.05621  -16.05621  -15.94273   11.04286   11.04286   18.34511   19.73698
  19.73698   24.19080   24.19080   24.61132   34.21899   34.76898   34.76898   37.31590
  46.80768   49.10855   49.10855   51.68827   51.68827   54.25393   54.78041   57.66971
 kpt#1127, nband= 24, wtk=  1.00000, kpt= -0.3873  0.4624  0.4624 (reduced coord)
 -39.39175  -16.05538  -16.05538  -15.94955   11.02407   11.02407   18.44494   19.76321
  19.76321   24.15614   24.15614   24.57136   34.14829   34.79739   34.79739   37.27497
  46.92384   49.09001   49.09001   51.77549   51.77549   54.24754   54.81220   57.59249
 kpt#1128, nband= 24, wtk=  1.00000, kpt= -0.3916  0.4639  0.4639 (reduced coord)
 -39.39071  -16.05460  -16.05460  -15.95645   11.00594   11.00594   18.54403   19.78902
  19.78902   24.12209   24.12209   24.52998   34.07942   34.82502   34.82502   37.23570
  47.03846   49.07087   49.07087   51.86482   51.86482   54.24063   54.84267   57.50969
 kpt#1129, nband= 24, wtk=  1.00000, kpt= -0.3960  0.4653  0.4653 (reduced coord)
 -39.38971  -16.05384  -16.05384  -15.96311   10.98847   10.98847   18.64223   19.81437
  19.81437   24.08873   24.08873   24.48751   34.01255   34.85193   34.85193   37.19805
  47.15141   49.05137   49.05137   51.95609   51.95609   54.23346   54.87182   57.42203
 kpt#1130, nband= 24, wtk=  1.00000, kpt= -0.4003  0.4668  0.4668 (reduced coord)
 -39.38874  -16.05310  -16.05310  -15.96955   10.97166   10.97166   18.73943   19.83920
  19.83920   24.05611   24.05611   24.44403   33.94778   34.87807   34.87807   37.16200
  47.26249   49.03168   49.03168   52.04913   52.04913   54.22603   54.89968   57.33018
 kpt#1131, nband= 24, wtk=  1.00000, kpt= -0.4046  0.4682  0.4682 (reduced coord)
 -39.38781  -16.05239  -16.05239  -15.97574   10.95553   10.95553   18.83547   19.86348
  19.86348   24.02430   24.02430   24.39964   33.88521   34.90340   34.90340   37.12753
  47.37148   49.01197   49.01197   52.14375   52.14375   54.21833   54.92626   57.23469
 kpt#1132, nband= 24, wtk=  1.00000, kpt= -0.4090  0.4697  0.4697 (reduced coord)
 -39.38691  -16.05170  -16.05170  -15.98168   10.94008   10.94008   18.93019   19.88716
  19.88716   23.99334   23.99334   24.35448   33.82496   34.92788   34.92788   37.09464
  47.47817   48.99240   48.99240   52.23981   52.23981   54.21037   54.95157   57.13610
 kpt#1133, nband= 24, wtk=  1.00000, kpt= -0.4133  0.4711  0.4711 (reduced coord)
 -39.38606  -16.05104  -16.05104  -15.98738   10.92531   10.92531   19.02342   19.91019
  19.91019   23.96329   23.96329   24.30867   33.76709   34.95148   34.95148   37.06329
  47.58233   48.97309   48.97309   52.33716   52.33716   54.20214   54.97562   57.03487
 kpt#1134, nband= 24, wtk=  1.00000, kpt= -0.4176  0.4725  0.4725 (reduced coord)
 -39.38524  -16.05041  -16.05041  -15.99282   10.91123   10.91123   19.11498   19.93253
  19.93253   23.93422   23.93422   24.26237   33.71169   34.97417   34.97417   37.03349
  47.68373   48.95417   48.95417   52.43565   52.43565   54.19367   54.99843   56.93142
 kpt#1135, nband= 24, wtk=  1.00000, kpt= -0.4220  0.4740  0.4740 (reduced coord)
 -39.38446  -16.04980  -16.04980  -15.99800   10.89785   10.89785   19.20465   19.95413
  19.95413   23.90618   23.90618   24.21575   33.65883   34.99590   34.99590   37.00522
  47.78212   48.93572   48.93572   52.53516   52.53516   54.18498   55.02000   56.82614
 kpt#1136, nband= 24, wtk=  1.00000, kpt= -0.4263  0.4754  0.4754 (reduced coord)
 -39.38372  -16.04922  -16.04922  -16.00293   10.88516   10.88516   19.29223   19.97493
  19.97493   23.87922   23.87922   24.16902   33.60857   35.01665   35.01665   36.97849
  47.87726   48.91786   48.91786   52.63553   52.63553   54.17611   55.04036   56.71939
 kpt#1137, nband= 24, wtk=  1.00000, kpt= -0.4306  0.4769  0.4769 (reduced coord)
 -39.38302  -16.04867  -16.04867  -16.00759   10.87318   10.87318   19.37746   19.99489
  19.99489   23.85342   23.85342   24.12237   33.56096   35.03639   35.03639   36.95327
  47.96891   48.90065   48.90065   52.73663   52.73663   54.16710   55.05950   56.61150
 kpt#1138, nband= 24, wtk=  1.00000, kpt= -0.4350  0.4783  0.4783 (reduced coord)
 -39.38236  -16.04815  -16.04815  -16.01198   10.86191   10.86191   19.46010   20.01396
  20.01396   23.82882   23.82882   24.07606   33.51605   35.05508   35.05508   36.92958
  48.05680   48.88418   48.88418   52.83830   52.83830   54.15800   55.07744   56.50279
 kpt#1139, nband= 24, wtk=  1.00000, kpt= -0.4393  0.4798  0.4798 (reduced coord)
 -39.38174  -16.04765  -16.04765  -16.01610   10.85134   10.85134   19.53986   20.03209
  20.03209   23.80549   23.80549   24.03034   33.47389   35.07270   35.07270   36.90741
  48.14068   48.86850   48.86850   52.94036   52.94036   54.14887   55.09418   56.39359
 kpt#1140, nband= 24, wtk=  1.00000, kpt= -0.4436  0.4812  0.4812 (reduced coord)
 -39.38116  -16.04719  -16.04719  -16.01995   10.84149   10.84149   19.61644   20.04923
  20.04923   23.78347   23.78347   23.98549   33.43451   35.08923   35.08923   36.88675
  48.22028   48.85369   48.85369   53.04261   53.04261   54.13980   55.10974   56.28422
 kpt#1141, nband= 24, wtk=  1.00000, kpt= -0.4480  0.4827  0.4827 (reduced coord)
 -39.38062  -16.04676  -16.04676  -16.02352   10.83236   10.83236   19.68953   20.06532
  20.06532   23.76283   23.76283   23.94183   33.39795   35.10463   35.10463   36.86762
  48.29533   48.83978   48.83978   53.14482   53.14482   54.13085   55.12412   56.17504
 kpt#1142, nband= 24, wtk=  1.00000, kpt= -0.4523  0.4841  0.4841 (reduced coord)
 -39.38012  -16.04636  -16.04636  -16.02682   10.82394   10.82394   19.75878   20.08034
  20.08034   23.74361   23.74361   23.89969   33.36423   35.11888   35.11888   36.85000
  48.36559   48.82682   48.82682   53.24670   53.24670   54.12211   55.13733   56.06644
 kpt#1143, nband= 24, wtk=  1.00000, kpt= -0.4566  0.4855  0.4855 (reduced coord)
 -39.37967  -16.04600  -16.04600  -16.02983   10.81625   10.81625   19.82383   20.09422
  20.09422   23.72588   23.72588   23.85940   33.33338   35.13197   35.13197   36.83391
  48.43079   48.81487   48.81487   53.34787   53.34787   54.11368   55.14937   55.95886
 kpt#1144, nband= 24, wtk=  1.00000, kpt= -0.4610  0.4870  0.4870 (reduced coord)
 -39.37926  -16.04566  -16.04566  -16.03256   10.80929   10.80929   19.88432   20.10693
  20.10693   23.70967   23.70967   23.82135   33.30541   35.14388   35.14388   36.81934
  48.49067   48.80395   48.80395   53.44787   53.44787   54.10565   55.16025   55.85287
 kpt#1145, nband= 24, wtk=  1.00000, kpt= -0.4653  0.4884  0.4884 (reduced coord)
 -39.37889  -16.04536  -16.04536  -16.03501   10.80305   10.80305   19.93984   20.11842
  20.11842   23.69503   23.69503   23.78590   33.28035   35.15458   35.15458   36.80630
  48.54500   48.79410   48.79410   53.54607   53.54607   54.09813   55.17000   55.74913
 kpt#1146, nband= 24, wtk=  1.00000, kpt= -0.4697  0.4899  0.4899 (reduced coord)
 -39.37856  -16.04509  -16.04509  -16.03717   10.79754   10.79754   19.99003   20.12865
  20.12865   23.68202   23.68202   23.75345   33.25821   35.16406   35.16406   36.79478
  48.59355   48.78534   48.78534   53.64163   53.64163   54.09120   55.17864   55.64857
 kpt#1147, nband= 24, wtk=  1.00000, kpt= -0.4740  0.4913  0.4913 (reduced coord)
 -39.37828  -16.04486  -16.04486  -16.03904   10.79276   10.79276   20.03448   20.13759
  20.13759   23.67065   23.67065   23.72437   33.23900   35.17231   35.17231   36.78480
  48.63609   48.77770   48.77770   53.73339   53.73339   54.08498   55.18624   55.55238
 kpt#1148, nband= 24, wtk=  1.00000, kpt= -0.4783  0.4928  0.4928 (reduced coord)
 -39.37804  -16.04466  -16.04466  -16.04062   10.78872   10.78872   20.07284   20.14522
  20.14522   23.66098   23.66098   23.69903   33.22272   35.17931   35.17931   36.77634
  48.67245   48.77120   48.77120   53.81974   53.81974   54.07954   55.19283   55.46221
 kpt#1149, nband= 24, wtk=  1.00000, kpt= -0.4827  0.4942  0.4942 (reduced coord)
 -39.37784  -16.04449  -16.04449  -16.04192   10.78540   10.78540   20.10475   20.15149
  20.15149   23.65302   23.65302   23.67777   33.20940   35.18505   35.18505   36.76942
  48.70244   48.76586   48.76586   53.89845   53.89845   54.07497   55.19846   55.38034
 kpt#1150, nband= 24, wtk=  1.00000, kpt= -0.4870  0.4957  0.4957 (reduced coord)
 -39.37769  -16.04436  -16.04436  -16.04292   10.78283   10.78283   20.12992   20.15639
  20.15639   23.64681   23.64681   23.66090   33.19903   35.18953   35.18953   36.76404
  48.72592   48.76169   48.76169   53.96646   53.96646   54.07135   55.20523   55.30985
 kpt#1151, nband= 24, wtk=  1.00000, kpt= -0.4913  0.4971  0.4971 (reduced coord)
 -39.37758  -16.04463  -16.04463  -16.04363   10.78099   10.78099   20.14802   20.15983
  20.15983   23.64219   23.64219   23.64866   33.19162   35.19266   35.19266   36.76016
  48.74275   48.75842   48.75842   54.01968   54.01968   54.06849   55.21737   55.25454
 kpt#1152, nband= 24, wtk=  1.00000, kpt= -0.4957  0.4986  0.4986 (reduced coord)
 -39.37752  -16.04457  -16.04457  -16.04405   10.77988   10.77988   20.15900   20.16194
  20.16194   23.63952   23.63952   23.64126   33.18717   35.19459   35.19459   36.75785
  48.75289   48.75663   48.75663   54.05429   54.05429   54.06692   55.21218   55.21885
 kpt#1153, nband= 24, wtk=  1.00000, kpt= -0.5000  0.5000  0.5000 (reduced coord)
 -39.37749  -16.04616  -16.04616  -16.04616   10.77947   10.77947   20.16235   20.16235
  20.16235   23.63772   23.63772   23.63772   33.18564   35.19380   35.19380   36.75699
  48.75525   48.75525   48.75525   54.06535   54.06535   54.06535   55.20551   55.20551
 Total charge density [el/Bohr^3]
)     Maximum=    7.7282E-01  at reduced coord.    0.8333    0.8333    0.8333
)Next maximum=    7.7282E-01  at reduced coord.    0.0000    0.0000    0.8333
)     Minimum=    4.0405E-03  at reduced coord.    0.0000    0.0000    0.0000
)Next minimum=    3.0106E-02  at reduced coord.    0.5000    0.5000    0.0000
   Integrated=    1.3000E+01
 dataset: 2 , wall: 46:12 [minutes] , cpu: 27:08 [minutes] <<< TIME

== END DATASET(S) ==============================================================
================================================================================
  
 -outvars: echo values of variables after computation  --------
 
 These variables are accessible in NetCDF format (./outdata/ebnd_OUT.nc)

            acell      6.2360000000E+00  6.2360000000E+00  6.2360000000E+00 Bohr
              amu      9.29063800E+01
             ecut      3.30000000E+01 Hartree
           enunit1          0
           enunit2          1
           etotal1    -6.2283690167E+01
            fcart1    -0.0000000000E+00 -0.0000000000E+00 -0.0000000000E+00
-          fftalg         312
           getden1          0
           getden2         -1
             iscf1          7
             iscf2         -2
           istwfk2       2    0    0    0    0    0    0    0    0    0
                         0    0    0    0    0    0    0    0    0    0
                         0    0    0    0    0    0    0    0    0    0
                         0    0    0    0    0    0    0    0    0    0
                         0    0    0    0    0    0    0    0    0    0
                       outvar_i_n : Printing only first  50 k-points.
              ixc          11
           jdtset        1    2
              kpt1     6.25000000E-02  6.25000000E-02  6.25000000E-02
                       1.87500000E-01  6.25000000E-02  6.25000000E-02
                       3.12500000E-01  6.25000000E-02  6.25000000E-02
                       4.37500000E-01  6.25000000E-02  6.25000000E-02
                      -6.25000000E-02  6.25000000E-02  6.25000000E-02
                       1.87500000E-01  1.87500000E-01  6.25000000E-02
                       3.12500000E-01  1.87500000E-01  6.25000000E-02
                      -1.87500000E-01  1.87500000E-01  6.25000000E-02
                       3.12500000E-01  3.12500000E-01  6.25000000E-02
                      -3.12500000E-01  3.12500000E-01  6.25000000E-02
                      -1.87500000E-01  3.12500000E-01  6.25000000E-02
                      -4.37500000E-01  4.37500000E-01  6.25000000E-02
                      -3.12500000E-01  4.37500000E-01  6.25000000E-02
                      -4.37500000E-01 -4.37500000E-01  6.25000000E-02
                      -3.12500000E-01 -4.37500000E-01  6.25000000E-02
                       1.87500000E-01  1.87500000E-01  1.87500000E-01
                       3.12500000E-01  1.87500000E-01  1.87500000E-01
                      -1.87500000E-01  1.87500000E-01  1.87500000E-01
                      -3.12500000E-01  3.12500000E-01  1.87500000E-01
                      -4.37500000E-01  4.37500000E-01  1.87500000E-01
                      -3.12500000E-01  4.37500000E-01  1.87500000E-01
                      -4.37500000E-01 -4.37500000E-01  1.87500000E-01
                      -3.12500000E-01  3.12500000E-01  3.12500000E-01
                      -4.37500000E-01  4.37500000E-01  3.12500000E-01
                      -4.37500000E-01 -4.37500000E-01  3.12500000E-01
                      -4.37500000E-01  4.37500000E-01  4.37500000E-01
              kpt2     0.00000000E+00  0.00000000E+00  0.00000000E+00
                      -2.50000000E-03  2.50000000E-03  2.50000000E-03
                      -5.00000000E-03  5.00000000E-03  5.00000000E-03
                      -7.50000000E-03  7.50000000E-03  7.50000000E-03
                      -1.00000000E-02  1.00000000E-02  1.00000000E-02
                      -1.25000000E-02  1.25000000E-02  1.25000000E-02
                      -1.50000000E-02  1.50000000E-02  1.50000000E-02
                      -1.75000000E-02  1.75000000E-02  1.75000000E-02
                      -2.00000000E-02  2.00000000E-02  2.00000000E-02
                      -2.25000000E-02  2.25000000E-02  2.25000000E-02
                      -2.50000000E-02  2.50000000E-02  2.50000000E-02
                      -2.75000000E-02  2.75000000E-02  2.75000000E-02
                      -3.00000000E-02  3.00000000E-02  3.00000000E-02
                      -3.25000000E-02  3.25000000E-02  3.25000000E-02
                      -3.50000000E-02  3.50000000E-02  3.50000000E-02
                      -3.75000000E-02  3.75000000E-02  3.75000000E-02
                      -4.00000000E-02  4.00000000E-02  4.00000000E-02
                      -4.25000000E-02  4.25000000E-02  4.25000000E-02
                      -4.50000000E-02  4.50000000E-02  4.50000000E-02
                      -4.75000000E-02  4.75000000E-02  4.75000000E-02
                      -5.00000000E-02  5.00000000E-02  5.00000000E-02
                      -5.25000000E-02  5.25000000E-02  5.25000000E-02
                      -5.50000000E-02  5.50000000E-02  5.50000000E-02
                      -5.75000000E-02  5.75000000E-02  5.75000000E-02
                      -6.00000000E-02  6.00000000E-02  6.00000000E-02
                      -6.25000000E-02  6.25000000E-02  6.25000000E-02
                      -6.50000000E-02  6.50000000E-02  6.50000000E-02
                      -6.75000000E-02  6.75000000E-02  6.75000000E-02
                      -7.00000000E-02  7.00000000E-02  7.00000000E-02
                      -7.25000000E-02  7.25000000E-02  7.25000000E-02
                      -7.50000000E-02  7.50000000E-02  7.50000000E-02
                      -7.75000000E-02  7.75000000E-02  7.75000000E-02
                      -8.00000000E-02  8.00000000E-02  8.00000000E-02
                      -8.25000000E-02  8.25000000E-02  8.25000000E-02
                      -8.50000000E-02  8.50000000E-02  8.50000000E-02
                      -8.75000000E-02  8.75000000E-02  8.75000000E-02
                      -9.00000000E-02  9.00000000E-02  9.00000000E-02
                      -9.25000000E-02  9.25000000E-02  9.25000000E-02
                      -9.50000000E-02  9.50000000E-02  9.50000000E-02
                      -9.75000000E-02  9.75000000E-02  9.75000000E-02
                      -1.00000000E-01  1.00000000E-01  1.00000000E-01
                      -1.02500000E-01  1.02500000E-01  1.02500000E-01
                      -1.05000000E-01  1.05000000E-01  1.05000000E-01
                      -1.07500000E-01  1.07500000E-01  1.07500000E-01
                      -1.10000000E-01  1.10000000E-01  1.10000000E-01
                      -1.12500000E-01  1.12500000E-01  1.12500000E-01
                      -1.15000000E-01  1.15000000E-01  1.15000000E-01
                      -1.17500000E-01  1.17500000E-01  1.17500000E-01
                      -1.20000000E-01  1.20000000E-01  1.20000000E-01
                      -1.22500000E-01  1.22500000E-01  1.22500000E-01
                       outvar_i_n : Printing only first  50 k-points.
           kptopt1          1
           kptopt2         -7
         kptrlatt        8    0    0      0    8    0      0    0    8
          kptrlen1     4.32042753E+01
          kptrlen2     3.00000000E+01
P           mkmem1          7
P           mkmem2        289
            natom           1
            nband1          8
            nband2         24
           nbdbuf1          0
           nbdbuf2          2
           ndtset           2
           ndivsm1          0
           ndivsm2        100
            ngfft          30      30      30
             nkpt1         26
             nkpt2       1153
            nstep          80
             nsym          48
           ntypat           1
              occ      2.000000  2.000000  2.000000  2.000000  2.000000  2.000000
                       2.000000  0.000000
                       2.000000  2.000000  2.000000  2.000000  2.000000  2.000000
                       2.000000  0.000000
                       2.000000  2.000000  2.000000  2.000000  2.000000  2.000000
                       0.000000  0.000000
                       2.000000  2.000000  2.000000  2.000000  2.000000  2.000000
                       0.000000  0.000000
                       2.000000  2.000000  2.000000  2.000000  2.000000  0.000000
                       0.000000  0.000000
                       2.000000  2.000000  2.000000  2.000000  2.000000  2.000000
                       2.000000  0.000000
                       2.000000  2.000000  2.000000  2.000000  2.000000  2.000000
                       0.001933  0.000000
                       2.000000  2.000000  2.000000  2.000000  2.000000  2.000000
                       1.305526  0.000000
                       2.000000  2.000000  2.000000  2.000000  2.000000  2.000000
                       2.000000  0.000000
                       2.000000  2.000000  2.000000  2.000000  2.000000  2.000000
                       2.023941  0.000000
                       2.000000  2.000000  2.000000  2.000000  2.000000  2.000000
                       2.000000  0.000000
                       2.000000  2.000000  2.000000  2.000000  2.000000  2.000000
                       0.000000  0.000000
                       2.000000  2.000000  2.000000  2.000000  2.000000  2.000000
                       2.000000  0.000000
                       2.000000  2.000000  2.000000  2.000000  2.000000  2.000000
                       0.000000  0.000000
                       2.000000  2.000000  2.000000  2.000000  2.000000  2.000000
                       2.000000  0.000000
                       2.000000  2.000000  2.000000  2.000000  2.000000  2.000000
                       2.000000  0.000000
                       2.000000  2.000000  2.000000  2.000000  2.000000  2.000000
                       2.000000  0.000000
                       2.000000  2.000000  2.000000  2.000000  2.000000  0.000000
                       0.000000  0.000000
                       2.000000  2.000000  2.000000  2.000000  2.000000  2.000000
                       0.000000  0.000000
                       2.000000  2.000000  2.000000  2.000000  2.000000  2.000000
                       2.000000  0.000000
                       2.000000  2.000000  2.000000  2.000000  2.000000  2.000000
                       0.000000  0.000000
                       2.000000  2.000000  2.000000  2.000000  2.000000  2.000000
                       2.000000  0.000000
                       2.000000  2.000000  2.000000  2.000000  2.000000  2.000000
                       0.000000  0.000000
                       2.000000  2.000000  2.000000  2.000000  2.000000  2.000000
                       0.000000  0.000000
                       2.000000  2.000000  2.000000  2.000000  2.000000  2.000000
                       0.000000  0.000000
                       2.000000  2.000000  2.000000  2.000000  2.000000  2.000000
                       0.000000  0.000000
           occopt           4
            rprim     -5.0000000000E-01  5.0000000000E-01  5.0000000000E-01
                       5.0000000000E-01 -5.0000000000E-01  5.0000000000E-01
                       5.0000000000E-01  5.0000000000E-01 -5.0000000000E-01
           shiftk      5.00000000E-01  5.00000000E-01  5.00000000E-01
          spgroup         229
           strten1     6.3323258284E-05  6.3323258284E-05  6.3323258284E-05
                       0.0000000000E+00  0.0000000000E+00  0.0000000000E+00
           symrel      1  0  0   0  1  0   0  0  1      -1  0  0   0 -1  0   0  0 -1
                      -1 -1 -1   0  0  1   0  1  0       1  1  1   0  0 -1   0 -1  0
                       0  1  0   1  0  0  -1 -1 -1       0 -1  0  -1  0  0   1  1  1
                       0  0  1  -1 -1 -1   1  0  0       0  0 -1   1  1  1  -1  0  0
                       0  1  0   1  0  0   0  0  1       0 -1  0  -1  0  0   0  0 -1
                      -1 -1 -1   0  0  1   1  0  0       1  1  1   0  0 -1  -1  0  0
                       1  0  0   0  1  0  -1 -1 -1      -1  0  0   0 -1  0   1  1  1
                       0  0  1  -1 -1 -1   0  1  0       0  0 -1   1  1  1   0 -1  0
                      -1 -1 -1   1  0  0   0  0  1       1  1  1  -1  0  0   0  0 -1
                       0  1  0   0  0  1   1  0  0       0 -1  0   0  0 -1  -1  0  0
                       1  0  0  -1 -1 -1   0  1  0      -1  0  0   1  1  1   0 -1  0
                       0  0  1   0  1  0  -1 -1 -1       0  0 -1   0 -1  0   1  1  1
                       1  0  0  -1 -1 -1   0  0  1      -1  0  0   1  1  1   0  0 -1
                       0  1  0   0  0  1  -1 -1 -1       0 -1  0   0  0 -1   1  1  1
                      -1 -1 -1   1  0  0   0  1  0       1  1  1  -1  0  0   0 -1  0
                       0  0  1   0  1  0   1  0  0       0  0 -1   0 -1  0  -1  0  0
                       0  1  0  -1 -1 -1   0  0  1       0 -1  0   1  1  1   0  0 -1
                       1  0  0   0  0  1  -1 -1 -1      -1  0  0   0  0 -1   1  1  1
                      -1 -1 -1   0  1  0   1  0  0       1  1  1   0 -1  0  -1  0  0
                       0  0  1   1  0  0   0  1  0       0  0 -1  -1  0  0   0 -1  0
                      -1 -1 -1   0  1  0   0  0  1       1  1  1   0 -1  0   0  0 -1
                       1  0  0   0  0  1   0  1  0      -1  0  0   0  0 -1   0 -1  0
                       0  1  0  -1 -1 -1   1  0  0       0 -1  0   1  1  1  -1  0  0
                       0  0  1   1  0  0  -1 -1 -1       0  0 -1  -1  0  0   1  1  1
           toldfe1     1.00000000E-06 Hartree
           toldfe2     0.00000000E+00 Hartree
           tolwfr1     0.00000000E+00
           tolwfr2     1.00000000E-12
           tsmear      1.00000000E-03 Hartree
            typat      1
              wtk1       0.01563    0.04688    0.04688    0.02344    0.01172    0.04688
                         0.09375    0.04688    0.01563    0.04688    0.04688    0.04688
                         0.09375    0.04688    0.04688    0.01563    0.02344    0.01172
                         0.04688    0.04688    0.04688    0.04688    0.01172    0.04688
                         0.01563    0.01172
              wtk2       1.00000    1.00000    1.00000    1.00000    1.00000    1.00000
                         1.00000    1.00000    1.00000    1.00000    1.00000    1.00000
                         1.00000    1.00000    1.00000    1.00000    1.00000    1.00000
                         1.00000    1.00000    1.00000    1.00000    1.00000    1.00000
                         1.00000    1.00000    1.00000    1.00000    1.00000    1.00000
                         1.00000    1.00000    1.00000    1.00000    1.00000    1.00000
                         1.00000    1.00000    1.00000    1.00000    1.00000    1.00000
                         1.00000    1.00000    1.00000    1.00000    1.00000    1.00000
                         1.00000    1.00000
                       outvars : Printing only first  50 k-points.
            znucl       41.00000

================================================================================

 symlatt: the Bravais lattice is cI (body-centered cubic)
 symspgr: spgroup= 229  Im -3 m   (=Oh^9)
 symspgr: optical characteristics = isotropic
 DATASET    1 : space group Im -3 m (#229); Bravais cI (body-center cubic)

 symlatt: the Bravais lattice is cI (body-centered cubic)
 symspgr: spgroup= 229  Im -3 m   (=Oh^9)
 symspgr: optical characteristics = isotropic
 DATASET    2 : space group Im -3 m (#229); Bravais cI (body-center cubic)

================================================================================
  
 Proc.   0 individual time (sec): cpu=       1640.0  wall=       2790.8

 Calculation completed.
.Delivered   0 WARNINGs and   0 COMMENTs to log file.

--- !FinalSummary
program: abinit
version: 10.2.7-d
start_datetime: Tue Aug 19 17:11:36 2025
end_datetime: Tue Aug 19 17:58:07 2025
overall_cpu_time:        6471.4
overall_wall_time:       11163.0
exit_requested_by_user: no 
timelimit: 0
pseudos: 
    Nb  : c757912afc3509af55de8954c62c9199
usepaw: 0
mpi_procs: 4
omp_threads: 8
num_warnings: 0
num_comments: 0
...
--------------------------------------------------------------------------
prterun has exited due to process rank 1 with PID 73102 on node Host-002 exiting
improperly. There are three reasons this could occur:

1. this process did not call "init" before exiting, but others in the
job did. This can cause a job to hang indefinitely while it waits for
all processes to call "init". By rule, if one process calls "init",
then ALL processes must call "init" prior to termination.

2. this process called "init", but exited without calling "finalize".
By rule, all processes that call "init" MUST call "finalize" prior to
exiting or it will be considered an "abnormal termination"

3. this process called "MPI_Abort" or "prte_abort" and the mca
parameter prte_create_session_dirs is set to false. In this case, the
run-time cannot detect that the abort call was an abnormal
termination. Hence, the only error message you will receive is this
one.

This may have caused other processes in the application to be
terminated by signals sent by prterun (as reported here).

You can avoid this message by specifying -quiet on the prterun command
line.
--------------------------------------------------------------------------
